&PROJWFC
 prefix = "Cu_vac_qn1_U8_unrlxd"
 outdir = "./out/"
 filpdos = "Cu_vac_in_ZnS.qn1.unrlxd.U8"
 Emin = -15
 Emax = 15
/
