&CONTROL
  calculation = 'scf'
  outdir = './out/'
  prefix = 'Cu_q0' 
  pseudo_dir = '/arf/home/amuhaymin/pseudo/' 
  verbosity = 'high'
  disk_io = 'low'
/
&SYSTEM
  ecutwfc = 150
  ecutrho = 600
  ibrav = 1
  a = 10.88441000000
  nat = 64
  ntyp = 3
  occupations = 'smearing'
  smearing = 'gauss'
  degauss = 0.001
  nspin = 2
  starting_magnetization(3) = 0.05263157894736842105
/
&ELECTRONS
  conv_thr =   1d-08
/
ATOMIC_SPECIES
S      32.065 S.pbe-n-kjpaw_psl.1.0.0.UPF
Zn     65.38 Zn.pbe-dnl-kjpaw_psl.1.0.0.UPF
Cu     63.546   Cu.pbe-spn-kjpaw_psl.1.0.0.UPF
ATOMIC_POSITIONS crystal
Zn            0.0000000000       -0.0000000000        0.0000000000
Zn            0.0001094573        0.2501791042        0.2501791042
Zn            0.2501791042        0.0001094573        0.2501791042
Zn            0.2501791042        0.2501791042        0.0001094573
S             0.1253015119        0.3750814365        0.3750814365
S             0.1249996043        0.1249996043        0.1249996043
S             0.3750814365        0.3750814365        0.1253015119
S             0.3750814365        0.1253015119        0.3750814365
Zn            0.0000000000        0.0000000000        0.5000000000
Zn           -0.0001094573        0.2501791042        0.7498208958
Zn            0.2501791042       -0.0001094573        0.7498208958
Zn            0.2513349838        0.2513349838        0.5009048173
S             0.1251847121        0.3750623115        0.8748152879
S             0.1251847121        0.1251847121        0.6249376885
S             0.3769191109        0.3769191109        0.6230808891
S             0.3750623115        0.1251847121        0.8748152879
Zn            0.0000000000        0.5000000000        0.0000000000
Zn           -0.0001094573        0.7498208958        0.2501791042
Zn            0.2513349838        0.5009048173        0.2513349838
Zn            0.2501791042        0.7498208958       -0.0001094573
S             0.1251847121        0.8748152879        0.3750623115
S             0.1251847121        0.6249376885        0.1251847121
S             0.3750623115        0.8748152879        0.1251847121
S             0.3769191109        0.6230808891        0.3769191109
Zn            0.0000000000        0.5000000000        0.5000000000
Zn            0.0001094573        0.7498208958        0.7498208958
Zn            0.2513349838        0.4990951827        0.7486650162
Zn            0.2513349838        0.7486650162        0.4990951827
S             0.1249996043        0.8750003957        0.8750003957
S             0.1253015119        0.6249185635        0.6249185635
S             0.3750814365        0.8746984881        0.6249185635
S             0.3750814365        0.6249185635        0.8746984881
Zn            0.5000000000        0.0000000000        0.0000000000
Zn            0.5009048173        0.2513349838        0.2513349838
Zn            0.7498208958       -0.0001094573        0.2501791042
Zn            0.7498208958        0.2501791042       -0.0001094573
S             0.6230808891        0.3769191109        0.3769191109
S             0.6249376885        0.1251847121        0.1251847121
S             0.8748152879        0.3750623115        0.1251847121
S             0.8748152879        0.1251847121        0.3750623115
Zn            0.5000000000        0.0000000000        0.5000000000
Zn            0.4990951827        0.2513349838        0.7486650162
Zn            0.7498208958        0.0001094573        0.7498208958
Zn            0.7486650162        0.2513349838        0.4990951827
S             0.6249185635        0.3750814365        0.8746984881
S             0.6249185635        0.1253015119        0.6249185635
S             0.8746984881        0.3750814365        0.6249185635
S             0.8750003957        0.1249996043        0.8750003957
Zn            0.5000000000        0.5000000000        0.0000000000
Zn            0.4990951827        0.7486650162        0.2513349838
Zn            0.7486650162        0.4990951827        0.2513349838
Zn            0.7498208958        0.7498208958        0.0001094573
S             0.6249185635        0.8746984881        0.3750814365
S             0.6249185635        0.6249185635        0.1253015119
S             0.8750003957        0.8750003957        0.1249996043
S             0.8746984881        0.6249185635        0.3750814365
Cu            0.5000000000        0.5000000000        0.5000000000
Zn            0.5009048173        0.7486650162        0.7486650162
Zn            0.7486650162        0.5009048173        0.7486650162
Zn            0.7486650162        0.7486650162        0.5009048173
S             0.6249376885        0.8748152879        0.8748152879
S             0.6230808891        0.6230808891        0.6230808891
S             0.8748152879        0.8748152879        0.6249376885
S             0.8748152879        0.6249376885        0.8748152879
K_POINTS automatic
4 4 4 0 0 0
