&INPUTPP
prefix='Cu_q0'
outdir='out'
filplot='Cu_in_ZnS.q0.pp'
plot_num = 11
/
&PLOT
nfile=1
filepp(1)='Cu_in_ZnS.q0.pp'
iflag=3
output_format=6
fileout='v_elec.Cu_in_ZnS.q0.cube'
/
