&DOS
    outdir  =  'out/'
    prefix  =  'Cu_q0'
    fildos  =  '5.Cu_in_ZnS.q0.dos'
    Emin = -15
    Emax = 15
/
