&PROJWFC
 prefix = "Cu_q0"
 outdir = "./out/"
 filpdos = "Cu_in_ZnS.q0"
 Emin = -15
 Emax = 15
/
