 &CONTROL
   calculation     =  'scf'
   disk_io         =  'none'
   outdir          =  './out/'
   prefix          =  'ecut'
   pseudo_dir      =  '/arf/home/amuhaymin/pseudo/'
   verbosity       =  'high'
 /

 &SYSTEM
   a               =  10.884420000
   degauss         =  0.001
   ecutrho         =  440
   ecutwfc         =  110
   ibrav           =  1
   nat             =  64
   nspin           =  2
   ntyp            =  2
   occupations     =  'smearing'
   smearing        =  'gauss'
   starting_magnetization(1) =  0.000000000000000
   starting_magnetization(2) =  0.000000000000000
 /

 &ELECTRONS
   conv_thr        =  1e-8
 /

ATOMIC_SPECIES 
  S    32.065   S.pbe-n-kjpaw_psl.1.0.0.UPF 
  Zn    65.38   Zn.pbe-dnl-kjpaw_psl.1.0.0.UPF 


ATOMIC_POSITIONS crystal
  Zn       0.000000000000   0.000000000000   0.000000000000
  Zn       0.000000000000   0.250000000000   0.250000000000
  Zn       0.250000000000   0.000000000000   0.250000000000
  Zn       0.250000000000   0.250000000000   0.000000000000
  S        0.125000000000   0.375000000000   0.375000000000
  S        0.125000000000   0.125000000000   0.125000000000
  S        0.375000000000   0.375000000000   0.125000000000
  S        0.375000000000   0.125000000000   0.375000000000
  Zn       0.000000000000   0.000000000000   0.500000000000
  Zn       0.000000000000   0.250000000000   0.750000000000
  Zn       0.250000000000   0.000000000000   0.750000000000
  Zn       0.250000000000   0.250000000000   0.500000000000
  S        0.125000000000   0.375000000000   0.875000000000
  S        0.125000000000   0.125000000000   0.625000000000
  S        0.375000000000   0.375000000000   0.625000000000
  S        0.375000000000   0.125000000000   0.875000000000
  Zn       0.000000000000   0.500000000000   0.000000000000
  Zn       0.000000000000   0.750000000000   0.250000000000
  Zn       0.250000000000   0.500000000000   0.250000000000
  Zn       0.250000000000   0.750000000000   0.000000000000
  S        0.125000000000   0.875000000000   0.375000000000
  S        0.125000000000   0.625000000000   0.125000000000
  S        0.375000000000   0.875000000000   0.125000000000
  S        0.375000000000   0.625000000000   0.375000000000
  Zn       0.000000000000   0.500000000000   0.500000000000
  Zn       0.000000000000   0.750000000000   0.750000000000
  Zn       0.250000000000   0.500000000000   0.750000000000
  Zn       0.250000000000   0.750000000000   0.500000000000
  S        0.125000000000   0.875000000000   0.875000000000
  S        0.125000000000   0.625000000000   0.625000000000
  S        0.375000000000   0.875000000000   0.625000000000
  S        0.375000000000   0.625000000000   0.875000000000
  Zn       0.500000000000   0.000000000000   0.000000000000
  Zn       0.500000000000   0.250000000000   0.250000000000
  Zn       0.750000000000   0.000000000000   0.250000000000
  Zn       0.750000000000   0.250000000000   0.000000000000
  S        0.625000000000   0.375000000000   0.375000000000
  S        0.625000000000   0.125000000000   0.125000000000
  S        0.875000000000   0.375000000000   0.125000000000
  S        0.875000000000   0.125000000000   0.375000000000
  Zn       0.500000000000   0.000000000000   0.500000000000
  Zn       0.500000000000   0.250000000000   0.750000000000
  Zn       0.750000000000   0.000000000000   0.750000000000
  Zn       0.750000000000   0.250000000000   0.500000000000
  S        0.625000000000   0.375000000000   0.875000000000
  S        0.625000000000   0.125000000000   0.625000000000
  S        0.875000000000   0.375000000000   0.625000000000
  S        0.875000000000   0.125000000000   0.875000000000
  Zn       0.500000000000   0.500000000000   0.000000000000
  Zn       0.500000000000   0.750000000000   0.250000000000
  Zn       0.750000000000   0.500000000000   0.250000000000
  Zn       0.750000000000   0.750000000000   0.000000000000
  S        0.625000000000   0.875000000000   0.375000000000
  S        0.625000000000   0.625000000000   0.125000000000
  S        0.875000000000   0.875000000000   0.125000000000
  S        0.875000000000   0.625000000000   0.375000000000
  Zn       0.500000000000   0.500000000000   0.500000000000
  Zn       0.500000000000   0.750000000000   0.750000000000
  Zn       0.750000000000   0.500000000000   0.750000000000
  Zn       0.750000000000   0.750000000000   0.500000000000
  S        0.625000000000   0.875000000000   0.875000000000
  S        0.625000000000   0.625000000000   0.625000000000
  S        0.875000000000   0.875000000000   0.625000000000
  S        0.875000000000   0.625000000000   0.875000000000

K_POINTS automatic
  4   4   4   0   0   0 



