&CONTROL
  calculation = 'relax'
  outdir = './out/'
  prefix = 'Co_vac_qn2' 
  pseudo_dir = '/arf/home/amuhaymin/pseudo/' 
  verbosity = 'high'
  disk_io = 'none'
  etot_conv_thr = 1.0D-5
  forc_conv_thr = 1.0D-4
  tprnfor = .true.
  tstress = .true.
/
&SYSTEM
  ecutwfc = 150
  ecutrho = 600
  ibrav = 1
  a = 10.88441000000
  nat = 63
  ntyp = 3
  occupations = 'smearing'
  smearing = 'gauss'
  degauss = 0.001
  nspin = 2
  starting_magnetization(3) = 0.05882352941176470588
  tot_charge = -2
/
&ELECTRONS
  conv_thr =   1d-08
/
&IONS
/
ATOMIC_SPECIES
S      32.065 S.pbe-n-kjpaw_psl.1.0.0.UPF
Zn     65.38 Zn.pbe-dnl-kjpaw_psl.1.0.0.UPF
Co     63.546   Co.pbe-spn-kjpaw_psl.0.3.1.UPF
ATOMIC_POSITIONS crystal
Zn           -0.0000666641       -0.0000666641       -0.0000666641
Zn            0.0024841862        0.2526189402        0.2526189402
Zn            0.2526189402        0.0024841862        0.2526189402
Zn            0.2526189402        0.2526189402        0.0024841862
S             0.1291006880        0.3779866609        0.3779866609
S             0.1260360216        0.1260360216        0.1260360216
S             0.3779866609        0.3779866609        0.1291006880
S             0.3779866609        0.1291006880        0.3779866609
Zn           -0.0045721014       -0.0045721014        0.5057267725
Zn           -0.0015204301        0.2519181700        0.7502558256
Zn            0.2519181700       -0.0015204301        0.7502558256
Zn            0.2601307577        0.2601307577        0.5070520678
S             0.1254984952        0.3759376231        0.8763897987
S             0.1274537287        0.1274537287        0.6252311538
S             0.3908576070        0.3908576070        0.6246613333
S             0.3759376231        0.1254984952        0.8763897987
Zn           -0.0045721014        0.5057267725       -0.0045721014
Zn           -0.0015204301        0.7502558256        0.2519181700
Zn            0.2601307577        0.5070520678        0.2601307577
Zn            0.2519181700        0.7502558256       -0.0015204301
S             0.1254984952        0.8763897987        0.3759376231
S             0.1274537287        0.6252311538        0.1274537287
S             0.3759376231        0.8763897987        0.1254984952
S             0.3908576070        0.6246613333        0.3908576070
Zn           -0.0014340611        0.5015439839        0.5015439839
Zn           -0.0081890235        0.7487706332        0.7487706332
Zn            0.2531404687        0.4992574059        0.7497434297
Zn            0.2531404687        0.7497434297        0.4992574059
S             0.1236068111        0.8740270631        0.8740270631
S             0.1256156708        0.6260401254        0.6260401254
S             0.3776341533        0.8730318937        0.6260636735
S             0.3776341533        0.6260636735        0.8730318937
Zn            0.5057267725       -0.0045721014       -0.0045721014
Zn            0.5070520678        0.2601307577        0.2601307577
Zn            0.7502558256       -0.0015204301        0.2519181700
Zn            0.7502558256        0.2519181700       -0.0015204301
S             0.6246613333        0.3908576070        0.3908576070
S             0.6252311538        0.1274537287        0.1274537287
S             0.8763897987        0.3759376231        0.1254984952
S             0.8763897987        0.1254984952        0.3759376231
Zn            0.5015439839       -0.0014340611        0.5015439839
Zn            0.4992574059        0.2531404687        0.7497434297
Zn            0.7487706332       -0.0081890235        0.7487706332
Zn            0.7497434297        0.2531404687        0.4992574059
S             0.6260636735        0.3776341533        0.8730318937
S             0.6260401254        0.1256156708        0.6260401254
S             0.8730318937        0.3776341533        0.6260636735
S             0.8740270631        0.1236068111        0.8740270631
Zn            0.5015439839        0.5015439839       -0.0014340611
Zn            0.4992574059        0.7497434297        0.2531404687
Zn            0.7497434297        0.4992574059        0.2531404687
Zn            0.7487706332        0.7487706332       -0.0081890235
S             0.6260636735        0.8730318937        0.3776341533
S             0.6260401254        0.6260401254        0.1256156708
S             0.8740270631        0.8740270631        0.1236068111
S             0.8730318937        0.6260636735        0.3776341533
Co            0.5365371739        0.5365371739        0.5365371739
Zn            0.5047055020        0.6993549327        0.6993549327
Zn            0.6993549327        0.5047055020        0.6993549327
Zn            0.6993549327        0.6993549327        0.5047055020
S             0.6196435960        0.8655815467        0.8655815467
S             0.8655815467        0.8655815467        0.6196435960
S             0.8655815467        0.6196435960        0.8655815467
K_POINTS automatic
4 4 4 0 0 0
