&CONTROL
  calculation = 'relax'
  outdir = './out/'
  prefix = 'Co_qn2' 
  pseudo_dir = '/arf/home/amuhaymin/pseudo/' 
  verbosity = 'high'
  disk_io = 'none'
  etot_conv_thr = 1.0D-5
  forc_conv_thr = 1.0D-4
  tstress = .true.
  tprnfor = .true.
/
&SYSTEM
  ecutwfc = 150
  ecutrho = 600
  ibrav = 1
  a = 10.88441000000
  nat = 63
  ntyp = 3
  occupations = 'smearing'
  smearing = 'gauss'
  degauss = 0.001
  nspin = 2
  starting_magnetization(3) = 0.05882352941176470588
  tot_charge = -2
/
&ELECTRONS
  conv_thr =   1d-08
/
&IONS
/
ATOMIC_SPECIES
S      32.065 S.pbe-n-kjpaw_psl.1.0.0.UPF
Zn     65.38 Zn.pbe-dnl-kjpaw_psl.1.0.0.UPF
Co     63.546   Co.pbe-spn-kjpaw_psl.0.3.1.UPF
ATOMIC_POSITIONS (crystal)
Zn           -0.0002827248       -0.0002827248       -0.0002827248
Zn           -0.0004169427        0.2506380574        0.2506380574
Zn            0.2506380574       -0.0004169427        0.2506380574
Zn            0.2506380574        0.2506380574       -0.0004169427
S             0.1255747716        0.3746503115        0.3746503115
S             0.1249472436        0.1249472436        0.1249472436
S             0.3746503115        0.3746503115        0.1255747716
S             0.3746503115        0.1255747716        0.3746503115
Zn           -0.0004650187       -0.0004650187        0.5005350751
Zn           -0.0002006257        0.2511096209        0.7487048970
Zn            0.2511096209       -0.0002006257        0.7487048970
Zn            0.2558661484        0.2558661484        0.5053062859
S             0.1245020539        0.3747862301        0.8758802203
S             0.1255320130        0.1255320130        0.6249993646
S             0.3854591017        0.3854591017        0.6198206271
S             0.3747862301        0.1245020539        0.8758802203
Zn           -0.0004650187        0.5005350751       -0.0004650187
Zn           -0.0002006257        0.7487048970        0.2511096209
Zn            0.2558661484        0.5053062859        0.2558661484
Zn            0.2511096209        0.7487048970       -0.0002006257
S             0.1245020539        0.8758802203        0.3747862301
S             0.1255320130        0.6249993646        0.1255320130
S             0.3747862301        0.8758802203        0.1245020539
S             0.3854591017        0.6198206271        0.3854591017
Zn           -0.0014521982        0.5001555601        0.5001555601
Zn           -0.0016213336        0.7493217836        0.7493217836
Zn            0.2558830591        0.4961849190        0.7454635544
Zn            0.2558830591        0.7454635544        0.4961849190
S             0.1252259195        0.8752821812        0.8752821812
S             0.1250224811        0.6252884046        0.6252884046
S             0.3745726346        0.8758507149        0.6254485216
S             0.3745726346        0.6254485216        0.8758507149
Zn            0.5005350751       -0.0004650187       -0.0004650187
Zn            0.5053062859        0.2558661484        0.2558661484
Zn            0.7487048970       -0.0002006257        0.2511096209
Zn            0.7487048970        0.2511096209       -0.0002006257
S             0.6198206271        0.3854591017        0.3854591017
S             0.6249993646        0.1255320130        0.1255320130
S             0.8758802203        0.3747862301        0.1245020539
S             0.8758802203        0.1245020539        0.3747862301
Zn            0.5001555601       -0.0014521982        0.5001555601
Zn            0.4961849190        0.2558830591        0.7454635544
Zn            0.7493217836       -0.0016213336        0.7493217836
Zn            0.7454635544        0.2558830591        0.4961849190
S             0.6254485216        0.3745726346        0.8758507149
S             0.6252884046        0.1250224811        0.6252884046
S             0.8758507149        0.3745726346        0.6254485216
S             0.8752821812        0.1252259195        0.8752821812
Zn            0.5001555601        0.5001555601       -0.0014521982
Zn            0.4961849190        0.7454635544        0.2558830591
Zn            0.7454635544        0.4961849190        0.2558830591
Zn            0.7493217836        0.7493217836       -0.0016213336
S             0.6254485216        0.8758507149        0.3745726346
S             0.6252884046        0.6252884046        0.1250224811
S             0.8752821812        0.8752821812        0.1252259195
S             0.8758507149        0.6254485216        0.3745726346
Co            0.5016322420        0.5016322420        0.5016322420
Zn            0.5213878799        0.7249096901        0.7249096901
Zn            0.7249096901        0.5213878799        0.7249096901
Zn            0.7249096901        0.7249096901        0.5213878799
S             0.6247722172        0.8749505128        0.8749505128
S             0.8749505128        0.8749505128        0.6247722172
S             0.8749505128        0.6247722172        0.8749505128
K_POINTS automatic
4 4 4 0 0 0
