&CONTROL
  calculation = 'relax'
  outdir = './out/'
  prefix = 'Co_vac_qn2' 
  pseudo_dir = '/arf/home/amuhaymin/pseudo/' 
  verbosity = 'high'
  disk_io = 'none'
  etot_conv_thr = 1.0D-5
  forc_conv_thr = 1.0D-4
  tprnfor = .true.
/
&SYSTEM
  ecutwfc = 150
  ecutrho = 600
  ibrav = 1
  a = 10.88441000000
  nat = 63
  ntyp = 3
  occupations = 'smearing'
  smearing = 'gauss'
  degauss = 0.001
  nspin = 2
  starting_magnetization(3) = 0.05882352941176470588
  tot_charge = -2
/
&ELECTRONS
  conv_thr =   1d-06
/
&IONS
/
ATOMIC_SPECIES
S      32.065 S.pbe-n-kjpaw_psl.1.0.0.UPF
Zn     65.38 Zn.pbe-dnl-kjpaw_psl.1.0.0.UPF
Co     63.546   Co.pbe-spn-kjpaw_psl.0.3.1.UPF
ATOMIC_POSITIONS crystal
Zn           -0.0002836293       -0.0002836293       -0.0002836293
Zn           -0.0004135074        0.2506387932        0.2506387932
Zn            0.2506387932       -0.0004135074        0.2506387932
Zn            0.2506387932        0.2506387932       -0.0004135074
S             0.1255746102        0.3746502734        0.3746502734
S             0.1249467130        0.1249467130        0.1249467130
S             0.3746502734        0.3746502734        0.1255746102
S             0.3746502734        0.1255746102        0.3746502734
Zn           -0.0004642101       -0.0004642101        0.5005348941
Zn           -0.0002011265        0.2511100984        0.7487037891
Zn            0.2511100984       -0.0002011265        0.7487037891
Zn            0.2558627284        0.2558627284        0.5053079001
S             0.1245012066        0.3747847484        0.8758819742
S             0.1255310893        0.1255310893        0.6250006506
S             0.3854609187        0.3854609187        0.6198207151
S             0.3747847484        0.1245012066        0.8758819742
Zn           -0.0004642101        0.5005348941       -0.0004642101
Zn           -0.0002011265        0.7487037891        0.2511100984
Zn            0.2558627284        0.5053079001        0.2558627284
Zn            0.2511100984        0.7487037891       -0.0002011265
S             0.1245012066        0.8758819742        0.3747847484
S             0.1255310893        0.6250006506        0.1255310893
S             0.3747847484        0.8758819742        0.1245012066
S             0.3854609187        0.6198207151        0.3854609187
Zn           -0.0014519419        0.5001556827        0.5001556827
Zn           -0.0016213844        0.7493219962        0.7493219962
Zn            0.2558793459        0.4961810705        0.7454679284
Zn            0.2558793459        0.7454679284        0.4961810705
S             0.1252259326        0.8752824788        0.8752824788
S             0.1250222770        0.6252890703        0.6252890703
S             0.3745731768        0.8758504507        0.6254491394
S             0.3745731768        0.6254491394        0.8758504507
Zn            0.5005348941       -0.0004642101       -0.0004642101
Zn            0.5053079001        0.2558627284        0.2558627284
Zn            0.7487037891       -0.0002011265        0.2511100984
Zn            0.7487037891        0.2511100984       -0.0002011265
S             0.6198207151        0.3854609187        0.3854609187
S             0.6250006506        0.1255310893        0.1255310893
S             0.8758819742        0.3747847484        0.1245012066
S             0.8758819742        0.1245012066        0.3747847484
Zn            0.5001556827       -0.0014519419        0.5001556827
Zn            0.4961810705        0.2558793459        0.7454679284
Zn            0.7493219962       -0.0016213844        0.7493219962
Zn            0.7454679284        0.2558793459        0.4961810705
S             0.6254491394        0.3745731768        0.8758504507
S             0.6252890703        0.1250222770        0.6252890703
S             0.8758504507        0.3745731768        0.6254491394
S             0.8752824788        0.1252259326        0.8752824788
Zn            0.5001556827        0.5001556827       -0.0014519419
Zn            0.4961810705        0.7454679284        0.2558793459
Zn            0.7454679284        0.4961810705        0.2558793459
Zn            0.7493219962        0.7493219962       -0.0016213844
S             0.6254491394        0.8758504507        0.3745731768
S             0.6252890703        0.6252890703        0.1250222770
S             0.8752824788        0.8752824788        0.1252259326
S             0.8758504507        0.6254491394        0.3745731768
Co            0.5016272163        0.5016272163        0.5016272163
Zn            0.5214000822        0.7249064033        0.7249064033
Zn            0.7249064033        0.5214000822        0.7249064033
Zn            0.7249064033        0.7249064033        0.5214000822
S             0.6247727009        0.8749513591        0.8749513591
S             0.8749513591        0.8749513591        0.6247727009
S             0.8749513591        0.6247727009        0.8749513591
K_POINTS automatic
4 4 4 0 0 0
