&CONTROL
  calculation = 'relax'
  outdir = './out/'
  prefix = 'Co_qn2' 
  pseudo_dir = '/arf/home/amuhaymin/pseudo/' 
  verbosity = 'high'
  disk_io = 'none'
  etot_conv_thr = 1.0D-5
  forc_conv_thr = 1.0D-4
  tstress = .true.
  tprnfor = .true.
/
&SYSTEM
  ecutwfc = 150
  ecutrho = 600
  ibrav = 1
  a = 10.88441000000
  nat = 63
  ntyp = 3
  occupations = 'smearing'
  smearing = 'gauss'
  degauss = 0.001
  nspin = 2
  starting_magnetization(3) = 0.05882352941176470588
  tot_charge = -2
/
&ELECTRONS
  conv_thr =   1d-08
/
&IONS
/
ATOMIC_SPECIES
S      32.065 S.pbe-n-kjpaw_psl.1.0.0.UPF
Zn     65.38 Zn.pbe-dnl-kjpaw_psl.1.0.0.UPF
Co     63.546   Co.pbe-spn-kjpaw_psl.0.3.1.UPF
ATOMIC_POSITIONS (crystal)
Zn           -0.0002260529       -0.0002260529       -0.0002260529
Zn           -0.0004262822        0.2505895184        0.2505895184
Zn            0.2505895184       -0.0004262822        0.2505895184
Zn            0.2505895184        0.2505895184       -0.0004262822
S             0.1251313842        0.3745220818        0.3745220818
S             0.1249251354        0.1249251354        0.1249251354
S             0.3745220818        0.3745220818        0.1251313842
S             0.3745220818        0.1251313842        0.3745220818
Zn           -0.0003278684       -0.0003278684        0.5004238524
Zn           -0.0000933703        0.2509473795        0.7487613441
Zn            0.2509473795       -0.0000933703        0.7487613441
Zn            0.2547027861        0.2547027861        0.5044043455
S             0.1243218805        0.3747547416        0.8759863983
S             0.1251781529        0.1251781529        0.6250618922
S             0.3836752646        0.3836752646        0.6205400860
S             0.3747547416        0.1243218805        0.8759863983
Zn           -0.0003278684        0.5004238524       -0.0003278684
Zn           -0.0000933703        0.7487613441        0.2509473795
Zn            0.2547027861        0.5044043455        0.2547027861
Zn            0.2509473795        0.7487613441       -0.0000933703
S             0.1243218805        0.8759863983        0.3747547416
S             0.1251781529        0.6250618922        0.1251781529
S             0.3747547416        0.8759863983        0.1243218805
S             0.3836752646        0.6205400860        0.3836752646
Zn           -0.0011978638        0.5001763440        0.5001763440
Zn           -0.0013155319        0.7493268739        0.7493268739
Zn            0.2549574231        0.4966705072        0.7460385129
Zn            0.2549574231        0.7460385129        0.4966705072
S             0.1251323162        0.8752861925        0.8752861925
S             0.1247417810        0.6253671847        0.6253671847
S             0.3741375686        0.8763347516        0.6254798329
S             0.3741375686        0.6254798329        0.8763347516
Zn            0.5004238524       -0.0003278684       -0.0003278684
Zn            0.5044043455        0.2547027861        0.2547027861
Zn            0.7487613441       -0.0000933703        0.2509473795
Zn            0.7487613441        0.2509473795       -0.0000933703
S             0.6205400860        0.3836752646        0.3836752646
S             0.6250618922        0.1251781529        0.1251781529
S             0.8759863983        0.3747547416        0.1243218805
S             0.8759863983        0.1243218805        0.3747547416
Zn            0.5001763440       -0.0011978638        0.5001763440
Zn            0.4966705072        0.2549574231        0.7460385129
Zn            0.7493268739       -0.0013155319        0.7493268739
Zn            0.7460385129        0.2549574231        0.4966705072
S             0.6254798329        0.3741375686        0.8763347516
S             0.6253671847        0.1247417810        0.6253671847
S             0.8763347516        0.3741375686        0.6254798329
S             0.8752861925        0.1251323162        0.8752861925
Zn            0.5001763440        0.5001763440       -0.0011978638
Zn            0.4966705072        0.7460385129        0.2549574231
Zn            0.7460385129        0.4966705072        0.2549574231
Zn            0.7493268739        0.7493268739       -0.0013155319
S             0.6254798329        0.8763347516        0.3741375686
S             0.6253671847        0.6253671847        0.1247417810
S             0.8752861925        0.8752861925        0.1251323162
S             0.8763347516        0.6254798329        0.3741375686
Co            0.5003027860        0.5003027860        0.5003027860
Zn            0.5167164652        0.7306051989        0.7306051989
Zn            0.7306051989        0.5167164652        0.7306051989
Zn            0.7306051989        0.7306051989        0.5167164652
S             0.6249420636        0.8755231120        0.8755231120
S             0.8755231120        0.8755231120        0.6249420636
S             0.8755231120        0.6249420636        0.8755231120
K_POINTS automatic
4 4 4 0 0 0
