&CONTROL
  calculation = 'scf'
  outdir = './out/'
  prefix = 'Co_vac_qn2' 
  pseudo_dir = '/arf/home/amuhaymin/pseudo/' 
  verbosity = 'high'
  disk_io = 'low'
/
&SYSTEM
  ecutwfc = 150
  ecutrho = 600
  ibrav = 1
  a = 10.88441000000
  nat = 63
  ntyp = 3
  occupations = 'smearing'
  smearing = 'gauss'
  degauss = 0.001
  nspin = 2
  starting_magnetization(3) = 0.05882352941176470588
  tot_charge = -2
/
&ELECTRONS
  conv_thr =   1d-08
/
ATOMIC_SPECIES
S      32.065 S.pbe-n-kjpaw_psl.1.0.0.UPF
Zn     65.38 Zn.pbe-dnl-kjpaw_psl.1.0.0.UPF
Co     63.546   Co.pbe-spn-kjpaw_psl.0.3.1.UPF
ATOMIC_POSITIONS crystal
Zn           -0.0000770610       -0.0000770610       -0.0000770610
Zn            0.0024715779        0.2526273328        0.2526273328
Zn            0.2526273328        0.0024715779        0.2526273328
Zn            0.2526273328        0.2526273328        0.0024715779
S             0.1291081408        0.3779775738        0.3779775738
S             0.1260651837        0.1260651837        0.1260651837
S             0.3779775738        0.3779775738        0.1291081408
S             0.3779775738        0.1291081408        0.3779775738
Zn           -0.0045565155       -0.0045565155        0.5057394058
Zn           -0.0015220173        0.2519183509        0.7502455596
Zn            0.2519183509       -0.0015220173        0.7502455596
Zn            0.2601341350        0.2601341350        0.5070604684
S             0.1254976142        0.3759444690        0.8763836944
S             0.1274644920        0.1274644920        0.6252086933
S             0.3908665332        0.3908665332        0.6246409188
S             0.3759444690        0.1254976142        0.8763836944
Zn           -0.0045565155        0.5057394058       -0.0045565155
Zn           -0.0015220173        0.7502455596        0.2519183509
Zn            0.2601341350        0.5070604684        0.2601341350
Zn            0.2519183509        0.7502455596       -0.0015220173
S             0.1254976142        0.8763836944        0.3759444690
S             0.1274644920        0.6252086933        0.1274644920
S             0.3759444690        0.8763836944        0.1254976142
S             0.3908665332        0.6246409188        0.3908665332
Zn           -0.0014335052        0.5015491319        0.5015491319
Zn           -0.0081936971        0.7487689401        0.7487689401
Zn            0.2531152993        0.4992500609        0.7497469880
Zn            0.2531152993        0.7497469880        0.4992500609
S             0.1236194651        0.8740195426        0.8740195426
S             0.1255821939        0.6260386290        0.6260386290
S             0.3776289101        0.8730410357        0.6260741009
S             0.3776289101        0.6260741009        0.8730410357
Zn            0.5057394058       -0.0045565155       -0.0045565155
Zn            0.5070604684        0.2601341350        0.2601341350
Zn            0.7502455596       -0.0015220173        0.2519183509
Zn            0.7502455596        0.2519183509       -0.0015220173
S             0.6246409188        0.3908665332        0.3908665332
S             0.6252086933        0.1274644920        0.1274644920
S             0.8763836944        0.3759444690        0.1254976142
S             0.8763836944        0.1254976142        0.3759444690
Zn            0.5015491319       -0.0014335052        0.5015491319
Zn            0.4992500609        0.2531152993        0.7497469880
Zn            0.7487689401       -0.0081936971        0.7487689401
Zn            0.7497469880        0.2531152993        0.4992500609
S             0.6260741009        0.3776289101        0.8730410357
S             0.6260386290        0.1255821939        0.6260386290
S             0.8730410357        0.3776289101        0.6260741009
S             0.8740195426        0.1236194651        0.8740195426
Zn            0.5015491319        0.5015491319       -0.0014335052
Zn            0.4992500609        0.7497469880        0.2531152993
Zn            0.7497469880        0.4992500609        0.2531152993
Zn            0.7487689401        0.7487689401       -0.0081936971
S             0.6260741009        0.8730410357        0.3776289101
S             0.6260386290        0.6260386290        0.1255821939
S             0.8740195426        0.8740195426        0.1236194651
S             0.8730410357        0.6260741009        0.3776289101
Co            0.5365473360        0.5365473360        0.5365473360
Zn            0.5047014855        0.6993470786        0.6993470786
Zn            0.6993470786        0.5047014855        0.6993470786
Zn            0.6993470786        0.6993470786        0.5047014855
S             0.6196618871        0.8655878138        0.8655878138
S             0.8655878138        0.8655878138        0.6196618871
S             0.8655878138        0.6196618871        0.8655878138
K_POINTS automatic
4 4 4 0 0 0
