&DOS
    outdir  =  'out/'
    prefix  =  'Co_vac_qn2'
    fildos  =  'Co_vac_in_ZnS.qn2.dos'
    Emin = -15
    Emax = 15
/
