&PROJWFC
 prefix = "Co_vac_qn2"
 outdir = "./out/"
 filpdos = "Co_vac_in_ZnS.qn2"
 Emin = -15
 Emax = 15
/
