&INPUTPP
prefix='Cu_vac_q0_U6_unrlxd'
outdir='out'
filplot='Cu_vac_in_ZnS.q0.unrlxd.U6.pp'
plot_num = 11
/
&PLOT
nfile=1
filepp(1)='Cu_vac_in_ZnS.q0.unrlxd.U6.pp'
iflag=3
output_format=6
fileout='4.v_elec.Cu_vac_in_ZnS.q0.unrlxd.U6.cube'
/
