&DOS
    outdir  =  'out/'
    prefix  =  'Cu_vac_qn1_U6_unrlxd'
    fildos  =  '5.Cu_vac_in_ZnS.qn1.unrlxd.U6.dos'
    Emin = -15
    Emax = 15
/
