&PROJWFC
 prefix = "Cu_vac_qn1_U6_unrlxd"
 outdir = "./out/"
 filpdos = "Cu_vac_in_ZnS.qn1.unrlxd.U6"
 Emin = -15
 Emax = 15
/
