&PROJWFC
 prefix = "Cu_vac_q0_U6_unrlxd"
 outdir = "./out/"
 filpdos = "Cu_vac_in_ZnS.q0.unrlxd.U6"
 Emin = -15
 Emax = 15
/
