&CONTROL
  calculation = 'scf'
  outdir = './out/'
  prefix = 'Cu_vac_qn1' 
  pseudo_dir = '/arf/home/amuhaymin/pseudo/' 
  verbosity = 'high'
  disk_io = 'low'
/
&SYSTEM
  ecutwfc = 150
  ecutrho = 600
  ibrav = 1
  a = 10.88441000000
  nat = 63
  ntyp = 3
  occupations = 'smearing'
  smearing = 'gauss'
  degauss = 0.001
  nspin = 2
  starting_magnetization(3) = 0.0000000000000000000
  tot_charge = -1
/
&ELECTRONS
  conv_thr =   1d-08
/
ATOMIC_SPECIES
S      32.065 S.pbe-n-kjpaw_psl.1.0.0.UPF
Zn     65.38 Zn.pbe-dnl-kjpaw_psl.1.0.0.UPF
Cu     63.546   Cu.pbe-spn-kjpaw_psl.1.0.0.UPF
ATOMIC_POSITIONS crystal
Zn            0.0006662400        0.0006662400        0.0006662400
Zn           -0.0011569103        0.2505962691        0.2505962691
Zn            0.2505962691       -0.0011569103        0.2505962691
Zn            0.2505962691        0.2505962691       -0.0011569103
S             0.1240282171        0.3756031435        0.3756031435
S             0.1257270562        0.1257270562        0.1257270562
S             0.3756031435        0.3756031435        0.1240282171
S             0.3756031435        0.1240282171        0.3756031435
Zn           -0.0017662838       -0.0017662838        0.5015763914
Zn           -0.0033337835        0.2560302422        0.7485699084
Zn            0.2560302422       -0.0033337835        0.7485699084
Zn            0.2501210322        0.2501210322        0.5022234420
S             0.1254857310        0.3772597602        0.8745683648
S             0.1239933206        0.1239933206        0.6269472901
S             0.3749207235        0.3749207235        0.6250441045
S             0.3772597602        0.1254857310        0.8745683648
Zn           -0.0017662838        0.5015763914       -0.0017662838
Zn           -0.0033337835        0.7485699084        0.2560302422
Zn            0.2501210322        0.5022234420        0.2501210322
Zn            0.2560302422        0.7485699084       -0.0033337835
S             0.1254857310        0.8745683648        0.3772597602
S             0.1239933206        0.6269472901        0.1239933206
S             0.3772597602        0.8745683648        0.1254857310
S             0.3749207235        0.6250441045        0.3749207235
Zn           -0.0024399379        0.5006647484        0.5006647484
Zn            0.0011361911        0.7514196477        0.7514196477
Zn            0.2537762123        0.5013078207        0.7487316165
Zn            0.2537762123        0.7487316165        0.5013078207
S             0.1277297314        0.8757488622        0.8757488622
S             0.1252745293        0.6255736016        0.6255736016
S             0.3847981556        0.8666467151        0.6278238734
S             0.3847981556        0.6278238734        0.8666467151
Zn            0.5015763914       -0.0017662838       -0.0017662838
Zn            0.5022234420        0.2501210322        0.2501210322
Zn            0.7485699084       -0.0033337835        0.2560302422
Zn            0.7485699084        0.2560302422       -0.0033337835
S             0.6250441045        0.3749207235        0.3749207235
S             0.6269472901        0.1239933206        0.1239933206
S             0.8745683648        0.3772597602        0.1254857310
S             0.8745683648        0.1254857310        0.3772597602
Zn            0.5006647484       -0.0024399379        0.5006647484
Zn            0.5013078207        0.2537762123        0.7487316165
Zn            0.7514196477        0.0011361911        0.7514196477
Zn            0.7487316165        0.2537762123        0.5013078207
S             0.6278238734        0.3847981556        0.8666467151
S             0.6255736016        0.1252745293        0.6255736016
S             0.8666467151        0.3847981556        0.6278238734
S             0.8757488622        0.1277297314        0.8757488622
Zn            0.5006647484        0.5006647484       -0.0024399379
Zn            0.5013078207        0.7487316165        0.2537762123
Zn            0.7487316165        0.5013078207        0.2537762123
Zn            0.7514196477        0.7514196477        0.0011361911
S             0.6278238734        0.8666467151        0.3847981556
S             0.6255736016        0.6255736016        0.1252745293
S             0.8757488622        0.8757488622        0.1277297314
S             0.8666467151        0.6278238734        0.3847981556
Cu            0.4734379611        0.4734379611        0.4734379611
Zn            0.5371892197        0.7286113902        0.7286113902
Zn            0.7286113902        0.5371892197        0.7286113902
Zn            0.7286113902        0.7286113902        0.5371892197
S             0.6272288588        0.8730427358        0.8730427358
S             0.8730427358        0.8730427358        0.6272288588
S             0.8730427358        0.6272288588        0.8730427358
K_POINTS automatic
4 4 4 0 0 0
