&DOS
    outdir  =  'out/'
    prefix  =  'Cu_vac_qn1'
    fildos  =  '5.Cu_vac_in_ZnS.qn1.dos'
    Emin = -15
    Emax = 15
/
