&PROJWFC
 prefix = "Cu_vac_qn1"
 outdir = "./out/"
 filpdos = "Cu_vac_in_ZnS.qn1"
 Emin = -15
 Emax = 15
/
