&CONTROL
  calculation = 'scf'
  outdir = './out/'
  prefix = 'Ni_q0' 
  pseudo_dir = '/arf/home/amuhaymin/pseudo/' 
  verbosity = 'high'
  disk_io = 'nowf'
/
&SYSTEM
  ecutwfc = 150
  ecutrho = 600
  ibrav = 1
  a = 10.88441000000
  nat = 64
  ntyp = 3
  occupations = 'smearing'
  smearing = 'gauss'
  degauss = 0.001
  nspin = 2
  starting_magnetization(3) = 0.11111111111111111111
/
&ELECTRONS
  conv_thr =   1d-08
/
ATOMIC_SPECIES
S      32.065 S.pbe-n-kjpaw_psl.1.0.0.UPF
Zn     65.38 Zn.pbe-dnl-kjpaw_psl.1.0.0.UPF
Ni     63.546   Ni.pbe-spn-kjpaw_psl.1.0.0.UPF
ATOMIC_POSITIONS crystal
Zn            0.0000000000       -0.0000000000        0.0000000000
Zn            0.0000731287        0.2501705605        0.2501705605
Zn            0.2501705605        0.0000731287        0.2501705605
Zn            0.2501705605        0.2501705605        0.0000731287
S             0.1252497713        0.3751386039        0.3751386039
S             0.1250410475        0.1250410475        0.1250410475
S             0.3751386039        0.3751386039        0.1252497713
S             0.3751386039        0.1252497713        0.3751386039
Zn            0.0000000000        0.0000000000        0.5000000000
Zn           -0.0000731287        0.2501705605        0.7498294395
Zn            0.2501705605       -0.0000731287        0.7498294395
Zn            0.2513316795        0.2513316795        0.5004018323
S             0.1254942287        0.3752034668        0.8745057713
S             0.1254942287        0.1254942287        0.6247965332
S             0.3785490620        0.3785490620        0.6214509380
S             0.3752034668        0.1254942287        0.8745057713
Zn            0.0000000000        0.5000000000        0.0000000000
Zn           -0.0000731287        0.7498294395        0.2501705605
Zn            0.2513316795        0.5004018323        0.2513316795
Zn            0.2501705605        0.7498294395       -0.0000731287
S             0.1254942287        0.8745057713        0.3752034668
S             0.1254942287        0.6247965332        0.1254942287
S             0.3752034668        0.8745057713        0.1254942287
S             0.3785490620        0.6214509380        0.3785490620
Zn            0.0000000000        0.5000000000        0.5000000000
Zn            0.0000731287        0.7498294395        0.7498294395
Zn            0.2513316795        0.4995981677        0.7486683205
Zn            0.2513316795        0.7486683205        0.4995981677
S             0.1250410475        0.8749589525        0.8749589525
S             0.1252497713        0.6248613961        0.6248613961
S             0.3751386039        0.8747502287        0.6248613961
S             0.3751386039        0.6248613961        0.8747502287
Zn            0.5000000000       -0.0000000000        0.0000000000
Zn            0.5004018323        0.2513316795        0.2513316795
Zn            0.7498294395       -0.0000731287        0.2501705605
Zn            0.7498294395        0.2501705605       -0.0000731287
S             0.6214509380        0.3785490620        0.3785490620
S             0.6247965332        0.1254942287        0.1254942287
S             0.8745057713        0.3752034668        0.1254942287
S             0.8745057713        0.1254942287        0.3752034668
Zn            0.5000000000       -0.0000000000        0.5000000000
Zn            0.4995981677        0.2513316795        0.7486683205
Zn            0.7498294395        0.0000731287        0.7498294395
Zn            0.7486683205        0.2513316795        0.4995981677
S             0.6248613961        0.3751386039        0.8747502287
S             0.6248613961        0.1252497713        0.6248613961
S             0.8747502287        0.3751386039        0.6248613961
S             0.8749589525        0.1250410475        0.8749589525
Zn            0.5000000000        0.5000000000        0.0000000000
Zn            0.4995981677        0.7486683205        0.2513316795
Zn            0.7486683205        0.4995981677        0.2513316795
Zn            0.7498294395        0.7498294395        0.0000731287
S             0.6248613961        0.8747502287        0.3751386039
S             0.6248613961        0.6248613961        0.1252497713
S             0.8749589525        0.8749589525        0.1250410475
S             0.8747502287        0.6248613961        0.3751386039
Ni            0.5000000000        0.5000000000        0.5000000000
Zn            0.5004018323        0.7486683205        0.7486683205
Zn            0.7486683205        0.5004018323        0.7486683205
Zn            0.7486683205        0.7486683205        0.5004018323
S             0.6247965332        0.8745057713        0.8745057713
S             0.6214509380        0.6214509380        0.6214509380
S             0.8745057713        0.8745057713        0.6247965332
S             0.8745057713        0.6247965332        0.8745057713
K_POINTS automatic
4 4 4 0 0 0
