&DOS
    outdir  =  'out/'
    prefix  =  'Ni_q0'
    fildos  =  '5.Ni_in_ZnS.q0.dos'
    Emin = -15
    Emax = 15
/
