&PROJWFC
 prefix = "Ni_q0"
 outdir = "./out/"
 filpdos = "Ni_in_ZnS.q0"
 Emin = -15
 Emax = 15
/
