&DOS
    outdir  =  'out/'
    prefix  =  'Fe_vac_q0_unrlxd'
    fildos  =  '5.Fe_vac_in_ZnS.q0.unrlxd.dos'
    Emin = -15
    Emax = 15
/
