&PROJWFC
 prefix = "Cu_vac_qn1_U5_unrlxd"
 outdir = "./out/"
 filpdos = "Cu_vac_in_ZnS.qn1.unrlxd.U5"
 Emin = -15
 Emax = 15
/
