&CONTROL
  calculation = 'relax'
  outdir = './out/'
  prefix = 'Cu_vac_q0_U3' 
  pseudo_dir = '/arf/home/amuhaymin/pseudo/' 
  verbosity = 'high'
  disk_io = 'none'
  etot_conv_thr = 1.0D-5
  forc_conv_thr = 1.0D-4
/
&SYSTEM
  ecutwfc = 150
  ecutrho = 600
  ibrav = 1
  a = 10.88441000000
  nat = 63
  ntyp = 3
  occupations = 'smearing'
  smearing = 'gauss'
  degauss = 0.001
  nspin = 2
  starting_magnetization(3) = 0.05263157894736842105
/
&ELECTRONS
  conv_thr =   1d-06
/
&IONS
/
ATOMIC_SPECIES
S      32.065 S.pbe-n-kjpaw_psl.1.0.0.UPF
Zn     65.38 Zn.pbe-dnl-kjpaw_psl.1.0.0.UPF
Cu     63.546   Cu.pbe-spn-kjpaw_psl.1.0.0.UPF
ATOMIC_POSITIONS (crystal)
Zn            0.0001720143        0.0001720143        0.0001720143
Zn            0.0000317838        0.2501255763        0.2501255763
Zn            0.2501255763        0.0000317838        0.2501255763
Zn            0.2501255763        0.2501255763        0.0000317838
S             0.1255714685        0.3752369836        0.3752369836
S             0.1249910689        0.1249910689        0.1249910689
S             0.3752369836        0.3752369836        0.1255714685
S             0.3752369836        0.1255714685        0.3752369836
Zn           -0.0002885939       -0.0002885939        0.4997701455
Zn           -0.0001804669        0.2505411592        0.7500683145
Zn            0.2505411592       -0.0001804669        0.7500683145
Zn            0.2537448486        0.2537448486        0.5028725525
S             0.1249773827        0.3753973478        0.8748270946
S             0.1251999702        0.1251999702        0.6247766396
S             0.3792135506        0.3792135506        0.6248676556
S             0.3753973478        0.1249773827        0.8748270946
Zn           -0.0002885939        0.4997701455       -0.0002885939
Zn           -0.0001804669        0.7500683145        0.2505411592
Zn            0.2537448486        0.5028725525        0.2537448486
Zn            0.2505411592        0.7500683145       -0.0001804669
S             0.1249773827        0.8748270946        0.3753973478
S             0.1251999702        0.6247766396        0.1251999702
S             0.3753973478        0.8748270946        0.1249773827
S             0.3792135506        0.6248676556        0.3792135506
Zn            0.0012087300        0.5002635666        0.5002635666
Zn            0.0011148885        0.7494062140        0.7494062140
Zn            0.2512571108        0.4973093508        0.7472064625
Zn            0.2512571108        0.7472064625        0.4973093508
S             0.1249265282        0.8747456200        0.8747456200
S             0.1256482498        0.6250275789        0.6250275789
S             0.3763760499        0.8730549760        0.6237160778
S             0.3763760499        0.6237160778        0.8730549760
Zn            0.4997701455       -0.0002885939       -0.0002885939
Zn            0.5028725525        0.2537448486        0.2537448486
Zn            0.7500683145       -0.0001804669        0.2505411592
Zn            0.7500683145        0.2505411592       -0.0001804669
S             0.6248676556        0.3792135506        0.3792135506
S             0.6247766396        0.1251999702        0.1251999702
S             0.8748270946        0.3753973478        0.1249773827
S             0.8748270946        0.1249773827        0.3753973478
Zn            0.5002635666        0.0012087300        0.5002635666
Zn            0.4973093508        0.2512571108        0.7472064625
Zn            0.7494062140        0.0011148885        0.7494062140
Zn            0.7472064625        0.2512571108        0.4973093508
S             0.6237160778        0.3763760499        0.8730549760
S             0.6250275789        0.1256482498        0.6250275789
S             0.8730549760        0.3763760499        0.6237160778
S             0.8747456200        0.1249265282        0.8747456200
Zn            0.5002635666        0.5002635666        0.0012087300
Zn            0.4973093508        0.7472064625        0.2512571108
Zn            0.7472064625        0.4973093508        0.2512571108
Zn            0.7494062140        0.7494062140        0.0011148885
S             0.6237160778        0.8730549760        0.3763760499
S             0.6250275789        0.6250275789        0.1256482498
S             0.8747456200        0.8747456200        0.1249265282
S             0.8730549760        0.6237160778        0.3763760499
Cu            0.4890626375        0.4890626375        0.4890626375
Zn            0.4981563625        0.7519709517        0.7519709517
Zn            0.7519709517        0.4981563625        0.7519709517
Zn            0.7519709517        0.7519709517        0.4981563625
S             0.6262000179        0.8736175021        0.8736175021
S             0.8736175021        0.8736175021        0.6262000179
S             0.8736175021        0.6262000179        0.8736175021
K_POINTS automatic
4 4 4 0 0 0
HUBBARD ortho-atomic
U Zn-3d 7.0000
U Cu-3d 3.0000
