&CONTROL
  calculation = 'nscf'
  outdir = './out/'
  prefix = 'Cu_vac_q0_U3' 
  pseudo_dir = '/arf/home/amuhaymin/pseudo/' 
  verbosity = 'high'
  disk_io = 'low'
/
&SYSTEM
  ecutwfc = 150
  ecutrho = 600
  ibrav = 1
  a = 10.88441000000
  nat = 63
  ntyp = 3
  occupations = 'tetrahedra_opt'
  nspin = 2
  starting_magnetization(3) = 0.05263157894736842105
/
&ELECTRONS
  conv_thr =   1d-08
/
ATOMIC_SPECIES
S      32.065 S.pbe-n-kjpaw_psl.1.0.0.UPF
Zn     65.38 Zn.pbe-dnl-kjpaw_psl.1.0.0.UPF
Cu     63.546   Cu.pbe-spn-kjpaw_psl.1.0.0.UPF
ATOMIC_POSITIONS (crystal)
Zn            0.0004760953        0.0004760953        0.0004760953
Zn            0.0002963699        0.2504489063        0.2504489063
Zn            0.2504489063        0.0002963699        0.2504489063
Zn            0.2504489063        0.2504489063        0.0002963699
S             0.1255109045        0.3752398614        0.3752398614
S             0.1253020862        0.1253020862        0.1253020862
S             0.3752398614        0.3752398614        0.1255109045
S             0.3752398614        0.1255109045        0.3752398614
Zn            0.0003722258        0.0003722258        0.4999896687
Zn           -0.0000259166        0.2511995350        0.7499454574
Zn            0.2511995350       -0.0000259166        0.7499454574
Zn            0.2519019729        0.2519019729        0.5024633906
S             0.1249220145        0.3756340290        0.8752520990
S             0.1249292008        0.1249292008        0.6254489568
S             0.3763135654        0.3763135654        0.6259284952
S             0.3756340290        0.1249220145        0.8752520990
Zn            0.0003722258        0.4999896687        0.0003722258
Zn           -0.0000259166        0.7499454574        0.2511995350
Zn            0.2519019729        0.5024633906        0.2519019729
Zn            0.2511995350        0.7499454574       -0.0000259166
S             0.1249220145        0.8752520990        0.3756340290
S             0.1249292008        0.6254489568        0.1249292008
S             0.3756340290        0.8752520990        0.1249220145
S             0.3763135654        0.6259284952        0.3763135654
Zn            0.0011382986        0.5000512278        0.5000512278
Zn            0.0021587788        0.7500410469        0.7500410469
Zn            0.2507566118        0.4981573861        0.7479076094
Zn            0.2507566118        0.7479076094        0.4981573861
S             0.1258862123        0.8752539070        0.8752539070
S             0.1253174221        0.6251064670        0.6251064670
S             0.3769094225        0.8730080570        0.6241715084
S             0.3769094225        0.6241715084        0.8730080570
Zn            0.4999896687        0.0003722258        0.0003722258
Zn            0.5024633906        0.2519019729        0.2519019729
Zn            0.7499454574       -0.0000259166        0.2511995350
Zn            0.7499454574        0.2511995350       -0.0000259166
S             0.6259284952        0.3763135654        0.3763135654
S             0.6254489568        0.1249292008        0.1249292008
S             0.8752520990        0.3756340290        0.1249220145
S             0.8752520990        0.1249220145        0.3756340290
Zn            0.5000512278        0.0011382986        0.5000512278
Zn            0.4981573861        0.2507566118        0.7479076094
Zn            0.7500410469        0.0021587788        0.7500410469
Zn            0.7479076094        0.2507566118        0.4981573861
S             0.6241715084        0.3769094225        0.8730080570
S             0.6251064670        0.1253174221        0.6251064670
S             0.8730080570        0.3769094225        0.6241715084
S             0.8752539070        0.1258862123        0.8752539070
Zn            0.5000512278        0.5000512278        0.0011382986
Zn            0.4981573861        0.7479076094        0.2507566118
Zn            0.7479076094        0.4981573861        0.2507566118
Zn            0.7500410469        0.7500410469        0.0021587788
S             0.6241715084        0.8730080570        0.3769094225
S             0.6251064670        0.6251064670        0.1253174221
S             0.8752539070        0.8752539070        0.1258862123
S             0.8730080570        0.6241715084        0.3769094225
Cu            0.4771341426        0.4771341426        0.4771341426
Zn            0.4999327020        0.7529983820        0.7529983820
Zn            0.7529983820        0.4999327020        0.7529983820
Zn            0.7529983820        0.7529983820        0.4999327020
S             0.6271715540        0.8749278843        0.8749278843
S             0.8749278843        0.8749278843        0.6271715540
S             0.8749278843        0.6271715540        0.8749278843
K_POINTS automatic
4 4 4 0 0 0
HUBBARD ortho-atomic
U Zn-3d 7.0000
U Cu-3d 3.0000
