&CONTROL
  calculation = 'nscf'
  outdir = './out/'
  prefix = 'Cu_vac_q0_U3' 
  pseudo_dir = '/arf/home/amuhaymin/pseudo/' 
  verbosity = 'high'
  disk_io = 'low'
/
&SYSTEM
  ecutwfc = 150
  ecutrho = 600
  ibrav = 1
  a = 10.88441000000
  nat = 63
  ntyp = 3
  occupations = 'tetrahedra_opt'
  nspin = 2
  starting_magnetization(3) = 0.05263157894736842105
/
&ELECTRONS
  conv_thr =   1d-08
/
ATOMIC_SPECIES
S      32.065 S.pbe-n-kjpaw_psl.1.0.0.UPF
Zn     65.38 Zn.pbe-dnl-kjpaw_psl.1.0.0.UPF
Cu     63.546   Cu.pbe-spn-kjpaw_psl.1.0.0.UPF
ATOMIC_POSITIONS (crystal)
Zn            0.0004942774        0.0004942774        0.0004942774
Zn            0.0003004253        0.2504505234        0.2504505234
Zn            0.2504505234        0.0003004253        0.2504505234
Zn            0.2504505234        0.2504505234        0.0003004253
S             0.1255053902        0.3752446532        0.3752446532
S             0.1253218657        0.1253218657        0.1253218657
S             0.3752446532        0.3752446532        0.1255053902
S             0.3752446532        0.1255053902        0.3752446532
Zn            0.0003873526        0.0003873526        0.4999398794
Zn           -0.0000289196        0.2512018142        0.7499460988
Zn            0.2512018142       -0.0000289196        0.7499460988
Zn            0.2519045470        0.2519045470        0.5024462770
S             0.1249286941        0.3756411387        0.8752395518
S             0.1249245904        0.1249245904        0.6254342663
S             0.3763307002        0.3763307002        0.6259142875
S             0.3756411387        0.1249286941        0.8752395518
Zn            0.0003873526        0.4999398794        0.0003873526
Zn           -0.0000289196        0.7499460988        0.2512018142
Zn            0.2519045470        0.5024462770        0.2519045470
Zn            0.2512018142        0.7499460988       -0.0000289196
S             0.1249286941        0.8752395518        0.3756411387
S             0.1249245904        0.6254342663        0.1249245904
S             0.3756411387        0.8752395518        0.1249286941
S             0.3763307002        0.6259142875        0.3763307002
Zn            0.0011221812        0.5000639855        0.5000639855
Zn            0.0021392017        0.7500202388        0.7500202388
Zn            0.2507786340        0.4981649120        0.7478969479
Zn            0.2507786340        0.7478969479        0.4981649120
S             0.1258844197        0.8752472954        0.8752472954
S             0.1253248473        0.6250991763        0.6250991763
S             0.3769467324        0.8729748156        0.6241780861
S             0.3769467324        0.6241780861        0.8729748156
Zn            0.4999398794        0.0003873526        0.0003873526
Zn            0.5024462770        0.2519045470        0.2519045470
Zn            0.7499460988       -0.0000289196        0.2512018142
Zn            0.7499460988        0.2512018142       -0.0000289196
S             0.6259142875        0.3763307002        0.3763307002
S             0.6254342663        0.1249245904        0.1249245904
S             0.8752395518        0.3756411387        0.1249286941
S             0.8752395518        0.1249286941        0.3756411387
Zn            0.5000639855        0.0011221812        0.5000639855
Zn            0.4981649120        0.2507786340        0.7478969479
Zn            0.7500202388        0.0021392017        0.7500202388
Zn            0.7478969479        0.2507786340        0.4981649120
S             0.6241780861        0.3769467324        0.8729748156
S             0.6250991763        0.1253248473        0.6250991763
S             0.8729748156        0.3769467324        0.6241780861
S             0.8752472954        0.1258844197        0.8752472954
Zn            0.5000639855        0.5000639855        0.0011221812
Zn            0.4981649120        0.7478969479        0.2507786340
Zn            0.7478969479        0.4981649120        0.2507786340
Zn            0.7500202388        0.7500202388        0.0021392017
S             0.6241780861        0.8729748156        0.3769467324
S             0.6250991763        0.6250991763        0.1253248473
S             0.8752472954        0.8752472954        0.1258844197
S             0.8729748156        0.6241780861        0.3769467324
Cu            0.4771655137        0.4771655137        0.4771655137
Zn            0.5000071279        0.7529658554        0.7529658554
Zn            0.7529658554        0.5000071279        0.7529658554
Zn            0.7529658554        0.7529658554        0.5000071279
S             0.6271592517        0.8749129696        0.8749129696
S             0.8749129696        0.8749129696        0.6271592517
S             0.8749129696        0.6271592517        0.8749129696
K_POINTS automatic
4 4 4 0 0 0
HUBBARD ortho-atomic
U Zn-3d 7.0000
U Cu-3d 3.0000
