&PROJWFC
 prefix = "Cu_vac_q0_U3"
 outdir = "./out/"
 filpdos = "Cu_vac_in_ZnS.q0.U3"
 Emin = -15
 Emax = 15
/
