 &CONTROL
   calculation     =  'scf'
   outdir          =  './out/'
   prefix          =  'hse06'
   pseudo_dir      =  '/arf/home/amuhaymin/pseudo/'
   verbosity       =  'high'
   disk_io = "low"
 /
 &SYSTEM
  ecutwfc = 150
  ecutrho = 600
  ibrav = 1
  a = 10.88441000000
  nat             =  64
  ntyp            =  2
  occupations     =  'smearing'
  smearing = 'gauss'
  degauss = 0.001
  nspin           = 2
  input_dft = 'hse'
  nqx1 = 1, nqx2 = 1, nqx3 = 1
  starting_magnetization(1) = 0.000000000000000
  starting_magnetization(2) = 0.000000000000000
 /
 &ELECTRONS
   conv_thr        =  1e-6
 /
ATOMIC_SPECIES 
  S    32.065   S.pbe-n-kjpaw_psl.1.0.0.UPF 
  Zn    65.38   Zn.pbe-dnl-kjpaw_psl.1.0.0.UPF 
ATOMIC_POSITIONS crystal
Zn           0.0000000000       0.0000000000       0.0000000000 
Zn           0.0000000000       0.2500000000       0.2500000000 
Zn           0.2500000000       0.0000000000       0.2500000000 
Zn           0.2500000000       0.2500000000       0.0000000000 
S            0.1250000000       0.3750000000       0.3750000000 
S            0.1250000000       0.1250000000       0.1250000000 
S            0.3750000000       0.3750000000       0.1250000000 
S            0.3750000000       0.1250000000       0.3750000000 
Zn           0.0000000000       0.0000000000       0.5000000000 
Zn           0.0000000000       0.2500000000       0.7500000000 
Zn           0.2500000000       0.0000000000       0.7500000000 
Zn           0.2500000000       0.2500000000       0.5000000000 
S            0.1250000000       0.3750000000       0.8750000000 
S            0.1250000000       0.1250000000       0.6250000000 
S            0.3750000000       0.3750000000       0.6250000000 
S            0.3750000000       0.1250000000       0.8750000000 
Zn           0.0000000000       0.5000000000       0.0000000000 
Zn           0.0000000000       0.7500000000       0.2500000000 
Zn           0.2500000000       0.5000000000       0.2500000000 
Zn           0.2500000000       0.7500000000       0.0000000000 
S            0.1250000000       0.8750000000       0.3750000000 
S            0.1250000000       0.6250000000       0.1250000000 
S            0.3750000000       0.8750000000       0.1250000000 
S            0.3750000000       0.6250000000       0.3750000000 
Zn           0.0000000000       0.5000000000       0.5000000000 
Zn           0.0000000000       0.7500000000       0.7500000000 
Zn           0.2500000000       0.5000000000       0.7500000000 
Zn           0.2500000000       0.7500000000       0.5000000000 
S            0.1250000000       0.8750000000       0.8750000000 
S            0.1250000000       0.6250000000       0.6250000000 
S            0.3750000000       0.8750000000       0.6250000000 
S            0.3750000000       0.6250000000       0.8750000000 
Zn           0.5000000000       0.0000000000       0.0000000000 
Zn           0.5000000000       0.2500000000       0.2500000000 
Zn           0.7500000000       0.0000000000       0.2500000000 
Zn           0.7500000000       0.2500000000       0.0000000000 
S            0.6250000000       0.3750000000       0.3750000000 
S            0.6250000000       0.1250000000       0.1250000000 
S            0.8750000000       0.3750000000       0.1250000000 
S            0.8750000000       0.1250000000       0.3750000000 
Zn           0.5000000000       0.0000000000       0.5000000000 
Zn           0.5000000000       0.2500000000       0.7500000000 
Zn           0.7500000000       0.0000000000       0.7500000000 
Zn           0.7500000000       0.2500000000       0.5000000000 
S            0.6250000000       0.3750000000       0.8750000000 
S            0.6250000000       0.1250000000       0.6250000000 
S            0.8750000000       0.3750000000       0.6250000000 
S            0.8750000000       0.1250000000       0.8750000000 
Zn           0.5000000000       0.5000000000       0.0000000000 
Zn           0.5000000000       0.7500000000       0.2500000000 
Zn           0.7500000000       0.5000000000       0.2500000000 
Zn           0.7500000000       0.7500000000       0.0000000000 
S            0.6250000000       0.8750000000       0.3750000000 
S            0.6250000000       0.6250000000       0.1250000000 
S            0.8750000000       0.8750000000       0.1250000000 
S            0.8750000000       0.6250000000       0.3750000000 
Zn           0.5000000000       0.5000000000       0.5000000000 
Zn           0.5000000000       0.7500000000       0.7500000000 
Zn           0.7500000000       0.5000000000       0.7500000000 
Zn           0.7500000000       0.7500000000       0.5000000000 
S            0.6250000000       0.8750000000       0.8750000000 
S            0.6250000000       0.6250000000       0.6250000000 
S            0.8750000000       0.8750000000       0.6250000000 
S            0.8750000000       0.6250000000       0.8750000000
K_POINTS gamma
