&CONTROL
  calculation = 'scf'
  !etot_conv_thr =   2.0000000000d-05
  !forc_conv_thr =   1.0000000000d-04
  outdir = './out/'
  prefix = 'Zn'
  pseudo_dir      =  '/home/abdul/git_repo/ZnS_Cu-Vacancy/pseudo/QE'
  verbosity       =  'high'
 /

&SYSTEM
  degauss =   7.3498618000d-03
  ecutwfc =   70
  ecutrho = 280
  ibrav = 0
  nat = 2
  ntyp = 1
  occupations = 'smearing'
  smearing = 'gauss'
/
&ELECTRONS
  conv_thr =   4.0000000000d-8
  startingpot= 'file'
  startingwfc= 'file'
/
ATOMIC_SPECIES
Zn     65.38 Zn.pbe-dnl-kjpaw_psl.1.0.0.UPF 
ATOMIC_POSITIONS crystal
Zn           0.3333333300       0.6666666700       0.2500000000 
Zn           0.6666666700       0.3333333300       0.7500000000 
K_POINTS automatic
14 14 7 0 0 0
CELL_PARAMETERS angstrom
      2.6143598000       0.0000000000       0.0000000000
     -1.3071799000       2.2641020014       0.0000000000
      0.0000000000       0.0000000000       4.8731610200