&CONTROL
  calculation = 'nscf'
  outdir = './out/'
  prefix = 'Co_qn1' 
  pseudo_dir = '/arf/home/amuhaymin/pseudo/' 
  verbosity = 'high'
  disk_io = 'low'
/
&SYSTEM
  ecutwfc = 150
  ecutrho = 600
  ibrav = 1
  a = 10.88441000000
  nat = 63
  ntyp = 3
  occupations = 'tetrahedra_opt'
  nspin = 2
  starting_magnetization(3) = 0.11764705882352941176
  tot_charge = -1
/
&ELECTRONS
  conv_thr =   1d-08
/
ATOMIC_SPECIES
S      32.065 S.pbe-n-kjpaw_psl.1.0.0.UPF
Zn     65.38 Zn.pbe-dnl-kjpaw_psl.1.0.0.UPF
Co     63.546   Co.pbe-spn-kjpaw_psl.0.3.1.UPF
ATOMIC_POSITIONS (crystal)
Zn            0.0002684941        0.0002684941        0.0002684941
Zn           -0.0013733524        0.2504218595        0.2504218595
Zn            0.2504218595       -0.0013733524        0.2504218595
Zn            0.2504218595        0.2504218595       -0.0013733524
S             0.1238228345        0.3754875502        0.3754875502
S             0.1254271955        0.1254271955        0.1254271955
S             0.3754875502        0.3754875502        0.1238228345
S             0.3754875502        0.1238228345        0.3754875502
Zn           -0.0020795634       -0.0020795634        0.5015393583
Zn           -0.0035137102        0.2552843294        0.7481868076
Zn            0.2552843294       -0.0035137102        0.7481868076
Zn            0.2514794563        0.2514794563        0.5013520668
S             0.1256102259        0.3769291229        0.8737317706
S             0.1245150812        0.1245150812        0.6261190507
S             0.3787563567        0.3787563567        0.6200880207
S             0.3769291229        0.1256102259        0.8737317706
Zn           -0.0020795634        0.5015393583       -0.0020795634
Zn           -0.0035137102        0.7481868076        0.2552843294
Zn            0.2514794563        0.5013520668        0.2514794563
Zn            0.2552843294        0.7481868076       -0.0035137102
S             0.1256102259        0.8737317706        0.3769291229
S             0.1245150812        0.6261190507        0.1245150812
S             0.3769291229        0.8737317706        0.1256102259
S             0.3787563567        0.6200880207        0.3787563567
Zn           -0.0025317528        0.5005987096        0.5005987096
Zn            0.0001887539        0.7507329194        0.7507329194
Zn            0.2545383271        0.5002458285        0.7474508164
Zn            0.2545383271        0.7474508164        0.5002458285
S             0.1270629218        0.8752110051        0.8752110051
S             0.1252733250        0.6252494414        0.6252494414
S             0.3840279080        0.8666767989        0.6272525875
S             0.3840279080        0.6272525875        0.8666767989
Zn            0.5015393583       -0.0020795634       -0.0020795634
Zn            0.5013520668        0.2514794563        0.2514794563
Zn            0.7481868076       -0.0035137102        0.2552843294
Zn            0.7481868076        0.2552843294       -0.0035137102
S             0.6200880207        0.3787563567        0.3787563567
S             0.6261190507        0.1245150812        0.1245150812
S             0.8737317706        0.3769291229        0.1256102259
S             0.8737317706        0.1256102259        0.3769291229
Zn            0.5005987096       -0.0025317528        0.5005987096
Zn            0.5002458285        0.2545383271        0.7474508164
Zn            0.7507329194        0.0001887539        0.7507329194
Zn            0.7474508164        0.2545383271        0.5002458285
S             0.6272525875        0.3840279080        0.8666767989
S             0.6252494414        0.1252733250        0.6252494414
S             0.8666767989        0.3840279080        0.6272525875
S             0.8752110051        0.1270629218        0.8752110051
Zn            0.5005987096        0.5005987096       -0.0025317528
Zn            0.5002458285        0.7474508164        0.2545383271
Zn            0.7474508164        0.5002458285        0.2545383271
Zn            0.7507329194        0.7507329194        0.0001887539
S             0.6272525875        0.8666767989        0.3840279080
S             0.6252494414        0.6252494414        0.1252733250
S             0.8752110051        0.8752110051        0.1270629218
S             0.8666767989        0.6272525875        0.3840279080
Co            0.4962128618        0.4962128618        0.4962128618
Zn            0.5346594286        0.7267325590        0.7267325590
Zn            0.7267325590        0.5346594286        0.7267325590
Zn            0.7267325590        0.7267325590        0.5346594286
S             0.6261082864        0.8718650660        0.8718650660
S             0.8718650660        0.8718650660        0.6261082864
S             0.8718650660        0.6261082864        0.8718650660
K_POINTS automatic
4 4 4 0 0 0
