&INPUTPP
prefix='Co_vac_qn1'
outdir='out'
filplot='Co_vac_in_ZnS.qn1.pp'
plot_num = 11
/
&PLOT
nfile=1
filepp(1)='Co_vac_in_ZnS.qn1.pp'
iflag=3
output_format=6
fileout='v_elec.Co_vac_in_ZnS.qn1.cube'
/
