&DOS
    outdir  =  'out/'
    prefix  =  'Co_vac_qn1'
    fildos  =  'Co_vac_in_ZnS.qn1.dos'
    Emin = -15
    Emax = 15
/
