&PROJWFC
 prefix = "Co_vac_qn1"
 outdir = "./out/"
 filpdos = "Co_vac_in_ZnS.qn1"
 Emin = -15
 Emax = 15
/
