&CONTROL
  calculation = 'scf'
  outdir = './out/'
  disk_io = "nowf"
  prefix = 'S'
  pseudo_dir = '/home/abdul/git_repo/ZnS/pseudo/QE/'
  verbosity = 'high'
/
&SYSTEM
  ecutrho =   240
  ecutwfc =   60
  ibrav = 0
  nat = 128
  ntyp = 1
  occupations = 'fixed'
/
&ELECTRONS
  conv_thr =   1d-06
  mixing_beta =   4.0000000000d-01
/
ATOMIC_SPECIES
S      32.065 S.pbe-n-kjpaw_psl.1.0.0.UPF
ATOMIC_POSITIONS crystal
S            0.2691255200       0.8263293700       0.3274685300 
S            0.7691255200       0.1736706300       0.1725314700 
S            0.2308744800       0.8263293700       0.1725314700 
S            0.7308744800       0.1736706300       0.3274685300 
S            0.4808744800       0.9236706300       0.9225314700 
S            0.9808744800       0.5763293700       0.0774685300 
S            0.5191255200       0.9236706300       0.0774685300 
S            0.0191255200       0.5763293700       0.9225314700 
S            0.9128869750       0.8549268050       0.8793939000 
S            0.9128869750       0.1450731950       0.1206061000 
S            0.0871130250       0.8549268050       0.1206061000 
S            0.0871130250       0.1450731950       0.8793939000 
S            0.8371130250       0.8950731950       0.3706061000 
S            0.8371130250       0.6049268050       0.1293939000 
S            0.6628869750       0.8950731950       0.1293939000 
S            0.6628869750       0.6049268050       0.3706061000 
S            0.8400281600       0.9029560850       0.9510897750 
S            0.8400281600       0.0970439150       0.0489102250 
S            0.1599718400       0.9029560850       0.0489102250 
S            0.1599718400       0.0970439150       0.9510897750 
S            0.9099718400       0.8470439150       0.2989102250 
S            0.9099718400       0.6529560850       0.2010897750 
S            0.5900281600       0.8470439150       0.2010897750 
S            0.5900281600       0.6529560850       0.2989102250 
S            0.8364938800       0.7826988750       0.0035359150 
S            0.3364938800       0.7173011250       0.9964640850 
S            0.1635061200       0.7826988750       0.9964640850 
S            0.6635061200       0.7173011250       0.0035359150 
S            0.9135061200       0.9673011250       0.2464640850 
S            0.4135061200       0.0326988750       0.2535359150 
S            0.5864938800       0.9673011250       0.2535359150 
S            0.0864938800       0.0326988750       0.2464640850 
S            0.2691255200       0.3263293700       0.8274685300 
S            0.7691255200       0.6736706300       0.6725314700 
S            0.2308744800       0.3263293700       0.6725314700 
S            0.7308744800       0.6736706300       0.8274685300 
S            0.4808744800       0.4236706300       0.4225314700 
S            0.9808744800       0.0763293700       0.5774685300 
S            0.5191255200       0.4236706300       0.5774685300 
S            0.0191255200       0.0763293700       0.4225314700 
S            0.9128869750       0.3549268050       0.3793939000 
S            0.9128869750       0.6450731950       0.6206061000 
S            0.0871130250       0.3549268050       0.6206061000 
S            0.0871130250       0.6450731950       0.3793939000 
S            0.8371130250       0.3950731950       0.8706061000 
S            0.8371130250       0.1049268050       0.6293939000 
S            0.6628869750       0.3950731950       0.6293939000 
S            0.6628869750       0.1049268050       0.8706061000 
S            0.8400281600       0.4029560850       0.4510897750 
S            0.8400281600       0.5970439150       0.5489102250 
S            0.1599718400       0.4029560850       0.5489102250 
S            0.1599718400       0.5970439150       0.4510897750 
S            0.9099718400       0.3470439150       0.7989102250 
S            0.9099718400       0.1529560850       0.7010897750 
S            0.5900281600       0.3470439150       0.7010897750 
S            0.5900281600       0.1529560850       0.7989102250 
S            0.8364938800       0.2826988750       0.5035359150 
S            0.3364938800       0.2173011250       0.4964640850 
S            0.1635061200       0.2826988750       0.4964640850 
S            0.6635061200       0.2173011250       0.5035359150 
S            0.9135061200       0.4673011250       0.7464640850 
S            0.4135061200       0.5326988750       0.7535359150 
S            0.5864938800       0.4673011250       0.7535359150 
S            0.0864938800       0.5326988750       0.7464640850 
S            0.7691255200       0.8263293700       0.8274685300 
S            0.2691255200       0.1736706300       0.6725314700 
S            0.7308744800       0.8263293700       0.6725314700 
S            0.2308744800       0.1736706300       0.8274685300 
S            0.9808744800       0.9236706300       0.4225314700 
S            0.4808744800       0.5763293700       0.5774685300 
S            0.0191255200       0.9236706300       0.5774685300 
S            0.5191255200       0.5763293700       0.4225314700 
S            0.4128869750       0.8549268050       0.3793939000 
S            0.4128869750       0.1450731950       0.6206061000 
S            0.5871130250       0.8549268050       0.6206061000 
S            0.5871130250       0.1450731950       0.3793939000 
S            0.3371130250       0.8950731950       0.8706061000 
S            0.3371130250       0.6049268050       0.6293939000 
S            0.1628869750       0.8950731950       0.6293939000 
S            0.1628869750       0.6049268050       0.8706061000 
S            0.3400281600       0.9029560850       0.4510897750 
S            0.3400281600       0.0970439150       0.5489102250 
S            0.6599718400       0.9029560850       0.5489102250 
S            0.6599718400       0.0970439150       0.4510897750 
S            0.4099718400       0.8470439150       0.7989102250 
S            0.4099718400       0.6529560850       0.7010897750 
S            0.0900281600       0.8470439150       0.7010897750 
S            0.0900281600       0.6529560850       0.7989102250 
S            0.3364938800       0.7826988750       0.5035359150 
S            0.8364938800       0.7173011250       0.4964640850 
S            0.6635061200       0.7826988750       0.4964640850 
S            0.1635061200       0.7173011250       0.5035359150 
S            0.4135061200       0.9673011250       0.7464640850 
S            0.9135061200       0.0326988750       0.7535359150 
S            0.0864938800       0.9673011250       0.7535359150 
S            0.5864938800       0.0326988750       0.7464640850 
S            0.7691255200       0.3263293700       0.3274685300 
S            0.2691255200       0.6736706300       0.1725314700 
S            0.7308744800       0.3263293700       0.1725314700 
S            0.2308744800       0.6736706300       0.3274685300 
S            0.9808744800       0.4236706300       0.9225314700 
S            0.4808744800       0.0763293700       0.0774685300 
S            0.0191255200       0.4236706300       0.0774685300 
S            0.5191255200       0.0763293700       0.9225314700 
S            0.4128869750       0.3549268050       0.8793939000 
S            0.4128869750       0.6450731950       0.1206061000 
S            0.5871130250       0.3549268050       0.1206061000 
S            0.5871130250       0.6450731950       0.8793939000 
S            0.3371130250       0.3950731950       0.3706061000 
S            0.3371130250       0.1049268050       0.1293939000 
S            0.1628869750       0.3950731950       0.1293939000 
S            0.1628869750       0.1049268050       0.3706061000 
S            0.3400281600       0.4029560850       0.9510897750 
S            0.3400281600       0.5970439150       0.0489102250 
S            0.6599718400       0.4029560850       0.0489102250 
S            0.6599718400       0.5970439150       0.9510897750 
S            0.4099718400       0.3470439150       0.2989102250 
S            0.4099718400       0.1529560850       0.2010897750 
S            0.0900281600       0.3470439150       0.2010897750 
S            0.0900281600       0.1529560850       0.2989102250 
S            0.3364938800       0.2826988750       0.0035359150 
S            0.8364938800       0.2173011250       0.9964640850 
S            0.6635061200       0.2826988750       0.9964640850 
S            0.1635061200       0.2173011250       0.0035359150 
S            0.4135061200       0.4673011250       0.2464640850 
S            0.9135061200       0.5326988750       0.2535359150 
S            0.0864938800       0.4673011250       0.2535359150 
S            0.5864938800       0.5326988750       0.2464640850 
K_POINTS automatic
4 4 2 0 0 0
CELL_PARAMETERS angstrom
     10.7682431516       0.0000000000       0.0000000000
      0.0000000000      13.1349486122       0.0000000000
      0.0000000000       0.0000000000      24.8978980737