&DOS
    outdir  =  'out/'
    prefix  =  'Cu_vac_qp1_U7_unrlxd'
    fildos  =  '5.Cu_vac_in_ZnS.qp1.unrlxd.U7.dos'
    Emin = -15
    Emax = 15
/
