&CONTROL
  calculation = 'scf'
  outdir = './out/'
  prefix = 'Fe_qp2' 
  pseudo_dir = '/arf/home/amuhaymin/pseudo/' 
  verbosity = 'high'
  disk_io = 'low'
/
&SYSTEM
  ecutwfc = 150
  ecutrho = 600
  ibrav = 1
  a = 10.88441000000
  nat = 63
  ntyp = 3
  occupations = 'smearing'
  smearing = 'gauss'
  degauss = 0.001
  nspin = 2
  starting_magnetization(3) = 0.25000000000000000000
  tot_charge = 2
/
&ELECTRONS
  conv_thr =   1d-08
/
ATOMIC_SPECIES
S      32.065 S.pbe-n-kjpaw_psl.1.0.0.UPF
Zn     65.38 Zn.pbe-dnl-kjpaw_psl.1.0.0.UPF
Fe     63.546   Fe.pbe-spn-kjpaw_psl.1.0.0.UPF
ATOMIC_POSITIONS crystal
Zn            0.0003398411        0.0003398411        0.0003398411
Zn            0.0004045092        0.2494497285        0.2494497285
Zn            0.2494497285        0.0004045092        0.2494497285
Zn            0.2494497285        0.2494497285        0.0004045092
S             0.1244742363        0.3748443058        0.3748443058
S             0.1248925122        0.1248925122        0.1248925122
S             0.3748443058        0.3748443058        0.1244742363
S             0.3748443058        0.1244742363        0.3748443058
Zn            0.0025491595        0.0025491595        0.4992508272
Zn            0.0023955010        0.2474991293        0.7507226418
Zn            0.2474991293        0.0023955010        0.7507226418
Zn            0.2493357219        0.2493357219        0.4981442422
S             0.1247450172        0.3747473804        0.8751778213
S             0.1257924786        0.1257924786        0.6244044137
S             0.3744375860        0.3744375860        0.6281220063
S             0.3747473804        0.1247450172        0.8751778213
Zn            0.0025491595        0.4992508272        0.0025491595
Zn            0.0023955010        0.7507226418        0.2474991293
Zn            0.2493357219        0.4981442422        0.2493357219
Zn            0.2474991293        0.7507226418        0.0023955010
S             0.1247450172        0.8751778213        0.3747473804
S             0.1257924786        0.6244044137        0.1257924786
S             0.3747473804        0.8751778213        0.1247450172
S             0.3744375860        0.6281220063        0.3744375860
Zn            0.0031382769        0.5002275018        0.5002275018
Zn            0.0030228214        0.7497703206        0.7497703206
Zn            0.2462462886        0.5006892401        0.7505946734
Zn            0.2462462886        0.7505946734        0.5006892401
S             0.1249911198        0.8750256249        0.8750256249
S             0.1250656033        0.6249492087        0.6249492087
S             0.3733772549        0.8767780503        0.6226915198
S             0.3733772549        0.6226915198        0.8767780503
Zn            0.4992508272        0.0025491595        0.0025491595
Zn            0.4981442422        0.2493357219        0.2493357219
Zn            0.7507226418        0.0023955010        0.2474991293
Zn            0.7507226418        0.2474991293        0.0023955010
S             0.6281220063        0.3744375860        0.3744375860
S             0.6244044137        0.1257924786        0.1257924786
S             0.8751778213        0.3747473804        0.1247450172
S             0.8751778213        0.1247450172        0.3747473804
Zn            0.5002275018        0.0031382769        0.5002275018
Zn            0.5006892401        0.2462462886        0.7505946734
Zn            0.7497703206        0.0030228214        0.7497703206
Zn            0.7505946734        0.2462462886        0.5006892401
S             0.6226915198        0.3733772549        0.8767780503
S             0.6249492087        0.1250656033        0.6249492087
S             0.8767780503        0.3733772549        0.6226915198
S             0.8750256249        0.1249911198        0.8750256249
Zn            0.5002275018        0.5002275018        0.0031382769
Zn            0.5006892401        0.7505946734        0.2462462886
Zn            0.7505946734        0.5006892401        0.2462462886
Zn            0.7497703206        0.7497703206        0.0030228214
S             0.6226915198        0.8767780503        0.3733772549
S             0.6249492087        0.6249492087        0.1250656033
S             0.8750256249        0.8750256249        0.1249911198
S             0.8767780503        0.6226915198        0.3733772549
Fe            0.4653074608        0.4653074608        0.4653074608
Zn            0.4700371193        0.7795349009        0.7795349009
Zn            0.7795349009        0.4700371193        0.7795349009
Zn            0.7795349009        0.7795349009        0.4700371193
S             0.6271459638        0.8765484678        0.8765484678
S             0.8765484678        0.8765484678        0.6271459638
S             0.8765484678        0.6271459638        0.8765484678
K_POINTS automatic
4 4 4 0 0 0
