&DOS
    outdir  =  'out/'
    prefix  =  'Fe_vac_qp2'
    fildos  =  'Fe_vac_in_ZnS.qp2.dos'
    Emin = -15
    Emax = 15
/
