&PROJWFC
 prefix = "Fe_qp2"
 outdir = "./out/"
 filpdos = "Fe_vac_in_ZnS.qp2"
 Emin = -15
 Emax = 15
/
