&PROJWFC
 prefix = "Cu_vac_qn1_unrlxd"
 outdir = "./out/"
 filpdos = "Cu_vac_in_ZnS.qn1.unrlxd"
 Emin = -15
 Emax = 15
/
