&CONTROL
  calculation = 'vc-relax'
  etot_conv_thr =   2.0000000000d-04
  forc_conv_thr =   1.0000000000d-03  
  outdir = './out/'
  prefix = 'S_solid'
  pseudo_dir = '/truba/home/amuhaymin/ZnS_Cu-Vacancy/pseudo/QE/'
  verbosity = 'high'
/
&SYSTEM
  ecutrho = 220
  ecutwfc =   55
  ibrav = 0
  nat = 24
  ntyp = 1
  occupations = 'fixed'
/
&ELECTRONS
  conv_thr =   4.80-07
  startingpot     =  'file'
  startingwfc     =  'file'
/
 &IONS
 /
 &CELL
 /
ATOMIC_SPECIES
S      32.065 S.pbe-n-kjpaw_psl.1.0.0.UPF 
ATOMIC_POSITIONS crystal
S            0.0076254700       0.3121584700       0.8880552400 
S            0.5000000000       0.5000000000       0.2758836700 
S            0.2259566800       0.7313893400       0.0000000000 
S            0.9923745300       0.6878415300       0.1119447600 
S            0.7667078600       0.8693265500       0.8578269700 
S            0.4923745300       0.8121584700       0.6119447600 
S            0.2667078600       0.6306734500       0.6421730300 
S            0.5000000000       0.5000000000       0.7241163300 
S            0.5076254700       0.1878415300       0.3880552400 
S            0.4923745300       0.8121584700       0.3880552400 
S            0.2667078600       0.6306734500       0.3578269700 
S            0.7332921400       0.3693265500       0.3578269700 
S            0.2740433200       0.2313893400       0.5000000000 
S            0.0000000000       0.0000000000       0.2241163300 
S            0.0000000000       0.0000000000       0.7758836700 
S            0.2332921400       0.1306734500       0.1421730300 
S            0.5076254700       0.1878415300       0.6119447600 
S            0.9923745300       0.6878415300       0.8880552400 
S            0.2332921400       0.1306734500       0.8578269700 
S            0.7332921400       0.3693265500       0.6421730300 
S            0.7259566800       0.7686106600       0.5000000000 
S            0.7667078600       0.8693265500       0.1421730300 
S            0.0076254700       0.3121584700       0.1119447600 
S            0.7740433200       0.2686106600       0.0000000000 
K_POINTS automatic
10 6 4 0 0 0
CELL_PARAMETERS angstrom
      4.8107422100       0.0000000000       0.0000000000
      0.0000000000       9.2690779400       0.0000000000
      0.0000000000       0.0000000000      14.9088686900
