&PROJWFC
 prefix = "ZnS_hub"
 outdir = "./out/"
 filpdos = "ZnS_hub"
 Emin = 0
 Emax = 12
/
