&CONTROL
  calculation = 'relax'
  outdir = './out/'
  prefix = 'Cu_vac_q0_U4' 
  pseudo_dir = '/arf/home/amuhaymin/pseudo/' 
  verbosity = 'high'
  disk_io = 'none'
/
&SYSTEM
  ecutwfc = 150
  ecutrho = 600
  ibrav = 1
  a = 10.88441000000
  nat = 63
  ntyp = 3
  occupations = 'smearing'
  smearing = 'gauss'
  degauss = 0.001
  nspin = 2
  starting_magnetization(3) = 0.05263157894736842105
/
&ELECTRONS
  conv_thr =   1d-06
/
&IONS
/
ATOMIC_SPECIES
S      32.065 S.pbe-n-kjpaw_psl.1.0.0.UPF
Zn     65.38 Zn.pbe-dnl-kjpaw_psl.1.0.0.UPF
Cu     63.546   Cu.pbe-spn-kjpaw_psl.1.0.0.UPF
ATOMIC_POSITIONS crystal
Zn            0.0004603029        0.0004603029        0.0004603029
Zn            0.0002281790        0.2503947163        0.2503947163
Zn            0.2503947163        0.0002281790        0.2503947163
Zn            0.2503947163        0.2503947163        0.0002281790
S             0.1252282048        0.3751681295        0.3751681295
S             0.1252756219        0.1252756219        0.1252756219
S             0.3751681295        0.3751681295        0.1252282048
S             0.3751681295        0.1252282048        0.3751681295
Zn            0.0007791115        0.0007791115        0.4997672170
Zn            0.0003013291        0.2508568818        0.7500664581
Zn            0.2508568818        0.0003013291        0.7500664581
Zn            0.2517309794        0.2517309794        0.5020266557
S             0.1249873995        0.3755778336        0.8752336240
S             0.1250439692        0.1250439692        0.6253612429
S             0.3760111400        0.3760111400        0.6255730618
S             0.3755778336        0.1249873995        0.8752336240
Zn            0.0007791115        0.4997672170        0.0007791115
Zn            0.0003013291        0.7500664581        0.2508568818
Zn            0.2517309794        0.5020266557        0.2517309794
Zn            0.2508568818        0.7500664581        0.0003013291
S             0.1249873995        0.8752336240        0.3755778336
S             0.1250439692        0.6253612429        0.1250439692
S             0.3755778336        0.8752336240        0.1249873995
S             0.3760111400        0.6255730618        0.3760111400
Zn            0.0012044367        0.5001361740        0.5001361740
Zn            0.0022364445        0.7499626622        0.7499626622
Zn            0.2508679767        0.4980781219        0.7477441381
Zn            0.2508679767        0.7477441381        0.4980781219
S             0.1258189105        0.8752481627        0.8752481627
S             0.1253832100        0.6250985807        0.6250985807
S             0.3763849577        0.8735733530        0.6241307471
S             0.3763849577        0.6241307471        0.8735733530
Zn            0.4997672170        0.0007791115        0.0007791115
Zn            0.5020266557        0.2517309794        0.2517309794
Zn            0.7500664581        0.0003013291        0.2508568818
Zn            0.7500664581        0.2508568818        0.0003013291
S             0.6255730618        0.3760111400        0.3760111400
S             0.6253612429        0.1250439692        0.1250439692
S             0.8752336240        0.3755778336        0.1249873995
S             0.8752336240        0.1249873995        0.3755778336
Zn            0.5001361740        0.0012044367        0.5001361740
Zn            0.4980781219        0.2508679767        0.7477441381
Zn            0.7499626622        0.0022364445        0.7499626622
Zn            0.7477441381        0.2508679767        0.4980781219
S             0.6241307471        0.3763849577        0.8735733530
S             0.6250985807        0.1253832100        0.6250985807
S             0.8735733530        0.3763849577        0.6241307471
S             0.8752481627        0.1258189105        0.8752481627
Zn            0.5001361740        0.5001361740        0.0012044367
Zn            0.4980781219        0.7477441381        0.2508679767
Zn            0.7477441381        0.4980781219        0.2508679767
Zn            0.7499626622        0.7499626622        0.0022364445
S             0.6241307471        0.8735733530        0.3763849577
S             0.6250985807        0.6250985807        0.1253832100
S             0.8752481627        0.8752481627        0.1258189105
S             0.8735733530        0.6241307471        0.3763849577
Cu            0.4745337314        0.4745337314        0.4745337314
Zn            0.4974591408        0.7556402498        0.7556402498
Zn            0.7556402498        0.4974591408        0.7556402498
Zn            0.7556402498        0.7556402498        0.4974591408
S             0.6272503721        0.8755799382        0.8755799382
S             0.8755799382        0.8755799382        0.6272503721
S             0.8755799382        0.6272503721        0.8755799382
K_POINTS automatic
4 4 4 0 0 0
HUBBARD ortho-atomic
U Zn-3d 7.0000
U Cu-3d 4.0000
