 &CONTROL
   calculation     =  'relax'
   outdir          =  './out/'
   prefix          =  'S'
   pseudo_dir      =  '/home/abdul/git_repo/ZnS/pseudo/QE'
   verbosity       =  'high'
   etot_conv_thr =  1d-6
   forc_conv_thr = 1d-5
 /

 &SYSTEM
   a               =  15
   ecutwfc         =  60
   ibrav           =  1
   nat             =  2
   ntyp            =  1
   occupations     =  'fixed'
 /

 &ELECTRONS
   conv_thr        =  1e-8
 /
&IONS
/
ATOMIC_SPECIES 
  S    65.38   S.pbe-n-kjpaw_psl.1.0.0.UPF 


ATOMIC_POSITIONS angstrom
  S        0.000000000000   0.000000000000   0.000000000000
  S        1.890000000000   0.000000000000   0.000000000000

K_POINTS gamma



