&CONTROL
  calculation = 'scf'
  outdir = './out/'
  prefix = 'S'
  pseudo_dir      =  '/home/abdul/git_repo/ZnS_Cu-Vacancy/pseudo/QE'
  verbosity       =  'high'
 /

&SYSTEM
  a = 10
  degauss =   7.3498618000d-02
  ecutwfc =   55
  ecutrho = 220
  ibrav = 1
  nat = 2
  ntyp = 1
  occupations = 'fixed'
/
&ELECTRONS
  conv_thr =   4.0000000000d-7
  startingpot= 'file'
  startingwfc= 'file'
/
ATOMIC_SPECIES
S     65.38 S.pbe-n-kjpaw_psl.1.0.0.UPF
ATOMIC_POSITIONS angstrom
S           0.00000000       0.00000000       0.00000000 
S           1.89000000       0.00000000       0.00000000 
K_POINTS automatic
1 1 1 0 0 0