&CONTROL
  calculation = 'relax'
  outdir = './out/'
  prefix = 'Fe_qn1' 
  pseudo_dir = '/arf/home/amuhaymin/pseudo/' 
  verbosity = 'high'
  disk_io = 'none'
  etot_conv_thr = 1.0D-5
  forc_conv_thr = 1.0D-4
  tstress = .true.
  tprnfor = .true.
/
&SYSTEM
  ecutwfc = 150
  ecutrho = 600
  ibrav = 1
  a = 10.88441000000
  nat = 63
  ntyp = 3
  occupations = 'smearing'
  smearing = 'gauss'
  degauss = 0.001
  nspin = 2
  starting_magnetization(3) = 0.1875000000000000000000
  tot_charge = -1
/
&ELECTRONS
  conv_thr =   1d-08
/
&IONS
/
ATOMIC_SPECIES
S      32.065 S.pbe-n-kjpaw_psl.1.0.0.UPF
Zn     65.38 Zn.pbe-dnl-kjpaw_psl.1.0.0.UPF
Fe     63.546   Fe.pbe-spn-kjpaw_psl.1.0.0.UPF
ATOMIC_POSITIONS crystal
Zn           -0.0002949347       -0.0002949347       -0.0002949347
Zn            0.0003102722        0.2510128011        0.2510128011
Zn            0.2510128011        0.0003102722        0.2510128011
Zn            0.2510128011        0.2510128011        0.0003102722
S             0.1251704021        0.3760389450        0.3760389450
S             0.1251812693        0.1251812693        0.1251812693
S             0.3760389450        0.3760389450        0.1251704021
S             0.3760389450        0.1251704021        0.3760389450
Zn           -0.0035921675       -0.0035921675        0.5017696443
Zn           -0.0039006065        0.2544261259        0.7477714083
Zn            0.2544261259       -0.0039006065        0.7477714083
Zn            0.2544991493        0.2544991493        0.5020092343
S             0.1251567160        0.3759678858        0.8745431884
S             0.1252490627        0.1252490627        0.6249503575
S             0.3830114766        0.3830114766        0.6240526940
S             0.3759678858        0.1251567160        0.8745431884
Zn           -0.0035921675        0.5017696443       -0.0035921675
Zn           -0.0039006065        0.7477714083        0.2544261259
Zn            0.2544991493        0.5020092343        0.2544991493
Zn            0.2544261259        0.7477714083       -0.0039006065
S             0.1251567160        0.8745431884        0.3759678858
S             0.1252490627        0.6249503575        0.1252490627
S             0.3759678858        0.8745431884        0.1251567160
S             0.3830114766        0.6240526940        0.3830114766
Zn           -0.0028036160        0.5003894020        0.5003894020
Zn           -0.0028649437        0.7491829847        0.7491829847
Zn            0.2532234509        0.5011880736        0.7499673359
Zn            0.2532234509        0.7499673359        0.5011880736
S             0.1252092339        0.8742468902        0.8742468902
S             0.1250132217        0.6250046858        0.6250046858
S             0.3824704021        0.8684492187        0.6274540876
S             0.3824704021        0.6274540876        0.8684492187
Zn            0.5017696443       -0.0035921675       -0.0035921675
Zn            0.5020092343        0.2544991493        0.2544991493
Zn            0.7477714083       -0.0039006065        0.2544261259
Zn            0.7477714083        0.2544261259       -0.0039006065
S             0.6240526940        0.3830114766        0.3830114766
S             0.6249503575        0.1252490627        0.1252490627
S             0.8745431884        0.3759678858        0.1251567160
S             0.8745431884        0.1251567160        0.3759678858
Zn            0.5003894020       -0.0028036160        0.5003894020
Zn            0.5011880736        0.2532234509        0.7499673359
Zn            0.7491829847       -0.0028649437        0.7491829847
Zn            0.7499673359        0.2532234509        0.5011880736
S             0.6274540876        0.3824704021        0.8684492187
S             0.6250046858        0.1250132217        0.6250046858
S             0.8684492187        0.3824704021        0.6274540876
S             0.8742468902        0.1252092339        0.8742468902
Zn            0.5003894020        0.5003894020       -0.0028036160
Zn            0.5011880736        0.7499673359        0.2532234509
Zn            0.7499673359        0.5011880736        0.2532234509
Zn            0.7491829847        0.7491829847       -0.0028649437
S             0.6274540876        0.8684492187        0.3824704021
S             0.6250046858        0.6250046858        0.1250132217
S             0.8742468902        0.8742468902        0.1252092339
S             0.8684492187        0.6274540876        0.3824704021
Fe            0.5251268241        0.5251268241        0.5251268241
Zn            0.5266118938        0.7177330770        0.7177330770
Zn            0.7177330770        0.5266118938        0.7177330770
Zn            0.7177330770        0.7177330770        0.5266118938
S             0.6225194513        0.8670259046        0.8670259046
S             0.8670259046        0.8670259046        0.6225194513
S             0.8670259046        0.6225194513        0.8670259046
K_POINTS automatic
4 4 4 0 0 0
