&CONTROL
  calculation = 'nscf'
  outdir = './out/'
  prefix = 'Fe_vac_qn1' 
  pseudo_dir = '/arf/home/amuhaymin/pseudo/' 
  verbosity = 'high'
  disk_io = 'low'
/
&SYSTEM
  ecutwfc = 150
  ecutrho = 600
  ibrav = 1
  a = 10.88441000000
  nat = 63
  ntyp = 3
  occupations = 'tetrahedra_opt'
  nspin = 2
  starting_magnetization(3) = 0.1875000000000000000000
  tot_charge = -1
/
&ELECTRONS
  conv_thr =   1d-08
/
ATOMIC_SPECIES
S      32.065 S.pbe-n-kjpaw_psl.1.0.0.UPF
Zn     65.38 Zn.pbe-dnl-kjpaw_psl.1.0.0.UPF
Fe     63.546   Fe.pbe-spn-kjpaw_psl.1.0.0.UPF
ATOMIC_POSITIONS crystal
Zn           -0.0005373217       -0.0005373217       -0.0005373217
Zn            0.0008113939        0.2512248113        0.2512248113
Zn            0.2512248113        0.0008113939        0.2512248113
Zn            0.2512248113        0.2512248113        0.0008113939
S             0.1266756176        0.3767350493        0.3767350493
S             0.1252117026        0.1252117026        0.1252117026
S             0.3767350493        0.3767350493        0.1266756176
S             0.3767350493        0.1266756176        0.3767350493
Zn           -0.0042216774       -0.0042216774        0.5023195307
Zn           -0.0027000640        0.2522441616        0.7488271684
Zn            0.2522441616       -0.0027000640        0.7488271684
Zn            0.2563436760        0.2563436760        0.5035855346
S             0.1250911649        0.3756087609        0.8746697866
S             0.1256586502        0.1256586502        0.6244601338
S             0.3860172847        0.3860172847        0.6241488703
S             0.3756087609        0.1250911649        0.8746697866
Zn           -0.0042216774        0.5023195307       -0.0042216774
Zn           -0.0027000640        0.7488271684        0.2522441616
Zn            0.2563436760        0.5035855346        0.2563436760
Zn            0.2522441616        0.7488271684       -0.0027000640
S             0.1250911649        0.8746697866        0.3756087609
S             0.1256586502        0.6244601338        0.1256586502
S             0.3756087609        0.8746697866        0.1250911649
S             0.3860172847        0.6241488703        0.3860172847
Zn           -0.0020833429        0.5007992152        0.5007992152
Zn           -0.0049129726        0.7486654868        0.7486654868
Zn            0.2526937735        0.5003761051        0.7502331350
Zn            0.2526937735        0.7502331350        0.5003761051
S             0.1238409696        0.8736136008        0.8736136008
S             0.1253750184        0.6252422800        0.6252422800
S             0.3801007062        0.8702911553        0.6266041181
S             0.3801007062        0.6266041181        0.8702911553
Zn            0.5023195307       -0.0042216774       -0.0042216774
Zn            0.5035855346        0.2563436760        0.2563436760
Zn            0.7488271684       -0.0027000640        0.2522441616
Zn            0.7488271684        0.2522441616       -0.0027000640
S             0.6241488703        0.3860172847        0.3860172847
S             0.6244601338        0.1256586502        0.1256586502
S             0.8746697866        0.3756087609        0.1250911649
S             0.8746697866        0.1250911649        0.3756087609
Zn            0.5007992152       -0.0020833429        0.5007992152
Zn            0.5003761051        0.2526937735        0.7502331350
Zn            0.7486654868       -0.0049129726        0.7486654868
Zn            0.7502331350        0.2526937735        0.5003761051
S             0.6266041181        0.3801007062        0.8702911553
S             0.6252422800        0.1253750184        0.6252422800
S             0.8702911553        0.3801007062        0.6266041181
S             0.8736136008        0.1238409696        0.8736136008
Zn            0.5007992152        0.5007992152       -0.0020833429
Zn            0.5003761051        0.7502331350        0.2526937735
Zn            0.7502331350        0.5003761051        0.2526937735
Zn            0.7486654868        0.7486654868       -0.0049129726
S             0.6266041181        0.8702911553        0.3801007062
S             0.6252422800        0.6252422800        0.1253750184
S             0.8736136008        0.8736136008        0.1238409696
S             0.8702911553        0.6266041181        0.3801007062
Fe            0.5308730930        0.5308730930        0.5308730930
Zn            0.5212807698        0.7164995737        0.7164995737
Zn            0.7164995737        0.5212807698        0.7164995737
Zn            0.7164995737        0.7164995737        0.5212807698
S             0.6210816443        0.8658167574        0.8658167574
S             0.8658167574        0.8658167574        0.6210816443
S             0.8658167574        0.6210816443        0.8658167574
K_POINTS automatic
4 4 4 0 0 0
