&PROJWFC
 prefix = "Fe_vac_qn1"
 outdir = "./out/"
 filpdos = "Fe_vac_in_ZnS.qn1"
 Emin = -15
 Emax = 15
/
