&CONTROL
  calculation = 'nscf'
  outdir = './out/'
  prefix = 'Cu_vac_q0_U' 
  pseudo_dir = '/arf/home/amuhaymin/pseudo/' 
  verbosity = 'high'
  disk_io = 'low'
/
&SYSTEM
  ecutwfc = 150
  ecutrho = 600
  ibrav = 1
  a = 10.88441000000
  nat = 63
  ntyp = 3
  occupations = 'tetrahedra_opt'
  nspin = 2
  starting_magnetization(3) = 0.05263157894736842105
/
&ELECTRONS
  conv_thr =   1d-08
/
ATOMIC_SPECIES
S      32.065 S.pbe-n-kjpaw_psl.1.0.0.UPF
Zn     65.38 Zn.pbe-dnl-kjpaw_psl.1.0.0.UPF
Cu     63.546   Cu.pbe-spn-kjpaw_psl.1.0.0.UPF
ATOMIC_POSITIONS crystal
Zn            0.0005016766        0.0005016766        0.0005016766
Zn            0.0002732558        0.2504441434        0.2504441434
Zn            0.2504441434        0.0002732558        0.2504441434
Zn            0.2504441434        0.2504441434        0.0002732558
S             0.1254680684        0.3752408867        0.3752408867
S             0.1253251733        0.1253251733        0.1253251733
S             0.3752408867        0.3752408867        0.1254680684
S             0.3752408867        0.1254680684        0.3752408867
Zn            0.0004057058        0.0004057058        0.4999486327
Zn           -0.0000318469        0.2512309917        0.7499513800
Zn            0.2512309917       -0.0000318469        0.7499513800
Zn            0.2519283573        0.2519283573        0.5024105275
S             0.1249799911        0.3756616756        0.8752108405
S             0.1249677568        0.1249677568        0.6254440180
S             0.3765037028        0.3765037028        0.6256689195
S             0.3756616756        0.1249799911        0.8752108405
Zn            0.0004057058        0.4999486327        0.0004057058
Zn           -0.0000318469        0.7499513800        0.2512309917
Zn            0.2519283573        0.5024105275        0.2519283573
Zn            0.2512309917        0.7499513800       -0.0000318469
S             0.1249799911        0.8752108405        0.3756616756
S             0.1249677568        0.6254440180        0.1249677568
S             0.3756616756        0.8752108405        0.1249799911
S             0.3765037028        0.6256689195        0.3765037028
Zn            0.0010913837        0.5000642016        0.5000642016
Zn            0.0021637462        0.7500396430        0.7500396430
Zn            0.2508469604        0.4981828466        0.7478373905
Zn            0.2508469604        0.7478373905        0.4981828466
S             0.1259037746        0.8752651145        0.8752651145
S             0.1253315254        0.6250906778        0.6250906778
S             0.3769656092        0.8729585495        0.6241981034
S             0.3769656092        0.6241981034        0.8729585495
Zn            0.4999486327        0.0004057058        0.0004057058
Zn            0.5024105275        0.2519283573        0.2519283573
Zn            0.7499513800       -0.0000318469        0.2512309917
Zn            0.7499513800        0.2512309917       -0.0000318469
S             0.6256689195        0.3765037028        0.3765037028
S             0.6254440180        0.1249677568        0.1249677568
S             0.8752108405        0.3756616756        0.1249799911
S             0.8752108405        0.1249799911        0.3756616756
Zn            0.5000642016        0.0010913837        0.5000642016
Zn            0.4981828466        0.2508469604        0.7478373905
Zn            0.7500396430        0.0021637462        0.7500396430
Zn            0.7478373905        0.2508469604        0.4981828466
S             0.6241981034        0.3769656092        0.8729585495
S             0.6250906778        0.1253315254        0.6250906778
S             0.8729585495        0.3769656092        0.6241981034
S             0.8752651145        0.1259037746        0.8752651145
Zn            0.5000642016        0.5000642016        0.0010913837
Zn            0.4981828466        0.7478373905        0.2508469604
Zn            0.7478373905        0.4981828466        0.2508469604
Zn            0.7500396430        0.7500396430        0.0021637462
S             0.6241981034        0.8729585495        0.3769656092
S             0.6250906778        0.6250906778        0.1253315254
S             0.8752651145        0.8752651145        0.1259037746
S             0.8729585495        0.6241981034        0.3769656092
Cu            0.4765770313        0.4765770313        0.4765770313
Zn            0.5001109443        0.7529185618        0.7529185618
Zn            0.7529185618        0.5001109443        0.7529185618
Zn            0.7529185618        0.7529185618        0.5001109443
S             0.6271678822        0.8749454771        0.8749454771
S             0.8749454771        0.8749454771        0.6271678822
S             0.8749454771        0.6271678822        0.8749454771
K_POINTS automatic
4 4 4 0 0 0
HUBBARD ortho-atomic
U Zn-3d 7.0000
U Cu-3d 2.0000
