&INPUTPP
prefix='Cu_vac_q0_U2'
outdir='out'
filplot='Cu_vac_in_ZnS.q0.U2.pp'
plot_num = 11
/
&PLOT
nfile=1
filepp(1)='Cu_vac_in_ZnS.q0.U2.pp'
iflag=3
output_format=6
fileout='4.v_elec.Cu_vac_in_ZnS.q0.U2.cube'
/
