&CONTROL
  calculation = 'nscf'
  outdir = './out/'
  prefix = 'Fe_qn1' 
  pseudo_dir = '/arf/home/amuhaymin/pseudo/' 
  verbosity = 'high'
  disk_io = 'low'
/
&SYSTEM
  ecutwfc = 150
  ecutrho = 600
  ibrav = 1
  a = 10.88441000000
  nat = 64
  ntyp = 3
  occupations = 'tetrahedra_opt'
  nspin = 2
  starting_magnetization(3) = 0.1875000000000000000
  tot_charge = -1
/
&ELECTRONS
  conv_thr =   1d-08
/
ATOMIC_SPECIES
S      32.065 S.pbe-n-kjpaw_psl.1.0.0.UPF
Zn     65.38 Zn.pbe-dnl-kjpaw_psl.1.0.0.UPF
Fe     63.546   Fe.pbe-spn-kjpaw_psl.1.0.0.UPF
ATOMIC_POSITIONS crystal
Zn            0.0000000000        0.0000000000        0.0000000000
Zn            0.0001913086        0.2504779863        0.2504779863
Zn            0.2504779863        0.0001913086        0.2504779863
Zn            0.2504779863        0.2504779863        0.0001913086
S             0.1253788526        0.3750320017        0.3750320017
S             0.1250332605        0.1250332605        0.1250332605
S             0.3750320017        0.3750320017        0.1253788526
S             0.3750320017        0.1253788526        0.3750320017
Zn            0.0000000000        0.0000000000        0.5000000000
Zn           -0.0001913086        0.2504779863        0.7495220137
Zn            0.2504779863       -0.0001913086        0.7495220137
Zn            0.2521884840        0.2521884840        0.5025449334
S             0.1248495164        0.3749485371        0.8751504836
S             0.1248495164        0.1248495164        0.6250514629
S             0.3773674852        0.3773674852        0.6226325148
S             0.3749485371        0.1248495164        0.8751504836
Zn            0.0000000000        0.5000000000        0.0000000000
Zn           -0.0001913086        0.7495220137        0.2504779863
Zn            0.2521884840        0.5025449334        0.2521884840
Zn            0.2504779863        0.7495220137       -0.0001913086
S             0.1248495164        0.8751504836        0.3749485371
S             0.1248495164        0.6250514629        0.1248495164
S             0.3749485371        0.8751504836        0.1248495164
S             0.3773674852        0.6226325148        0.3773674852
Zn            0.0000000000        0.5000000000        0.5000000000
Zn            0.0001913086        0.7495220137        0.7495220137
Zn            0.2521884840        0.4974550666        0.7478115160
Zn            0.2521884840        0.7478115160        0.4974550666
S             0.1250332605        0.8749667395        0.8749667395
S             0.1253788526        0.6249679983        0.6249679983
S             0.3750320017        0.8746211474        0.6249679983
S             0.3750320017        0.6249679983        0.8746211474
Zn            0.5000000000       -0.0000000000        0.0000000000
Zn            0.5025449334        0.2521884840        0.2521884840
Zn            0.7495220137       -0.0001913086        0.2504779863
Zn            0.7495220137        0.2504779863       -0.0001913086
S             0.6226325148        0.3773674852        0.3773674852
S             0.6250514629        0.1248495164        0.1248495164
S             0.8751504836        0.3749485371        0.1248495164
S             0.8751504836        0.1248495164        0.3749485371
Zn            0.5000000000       -0.0000000000        0.5000000000
Zn            0.4974550666        0.2521884840        0.7478115160
Zn            0.7495220137        0.0001913086        0.7495220137
Zn            0.7478115160        0.2521884840        0.4974550666
S             0.6249679983        0.3750320017        0.8746211474
S             0.6249679983        0.1253788526        0.6249679983
S             0.8746211474        0.3750320017        0.6249679983
S             0.8749667395        0.1250332605        0.8749667395
Zn            0.5000000000        0.5000000000        0.0000000000
Zn            0.4974550666        0.7478115160        0.2521884840
Zn            0.7478115160        0.4974550666        0.2521884840
Zn            0.7495220137        0.7495220137        0.0001913086
S             0.6249679983        0.8746211474        0.3750320017
S             0.6249679983        0.6249679983        0.1253788526
S             0.8749667395        0.8749667395        0.1250332605
S             0.8746211474        0.6249679983        0.3750320017
Fe            0.5000000000        0.5000000000        0.5000000000
Zn            0.5025449334        0.7478115160        0.7478115160
Zn            0.7478115160        0.5025449334        0.7478115160
Zn            0.7478115160        0.7478115160        0.5025449334
S             0.6250514629        0.8751504836        0.8751504836
S             0.6226325148        0.6226325148        0.6226325148
S             0.8751504836        0.8751504836        0.6250514629
S             0.8751504836        0.6250514629        0.8751504836
K_POINTS automatic
4 4 4 0 0 0
