&DOS
    outdir  =  'out/'
    prefix  =  'Fe_qn1'
    fildos  =  '5.Fe_in_ZnS.qn1.dos'
    Emin = -15
    Emax = 15
/
