 &CONTROL
   calculation     =  'relax'
   outdir          =  './out/'
   prefix          =  'ZnSCu'
   pseudo_dir      =  '/arf/home/amuhaymin/pseudo/' 
   verbosity       =  'high'
   etot_conv_thr   =  0.1D-3
   forc_conv_thr   =  0.3D-3
   disk_io = 'none'
 /

 &SYSTEM
   a               =  10.88442
   degauss         =  0.01
   ecutrho         =  420
   ecutwfc         =  105
   ibrav           =  1
   nat             =  64
   ntyp            =  3
   occupations     =  'smearing'
   smearing        =  'gauss'
   nspin           = 2
   starting_magnetization(3) = 0.05263157894736842105
 /

 &ELECTRONS
   conv_thr        =  1e-6
 /
&IONS
/
ATOMIC_SPECIES 
  S    32.065   S.pbe-n-kjpaw_psl.1.0.0.UPF 
  Zn    65.38   Zn.pbe-dnl-kjpaw_psl.1.0.0.UPF 
  Cu   63.546   Cu.pbe-spn-kjpaw_psl.1.0.0.UPF 
ATOMIC_POSITIONS crystal
Zn            0.0000000000        0.0000000000        0.0000000000
Zn            0.0000000000        0.2500007425        0.2500007425
Zn            0.2500007425        0.0000000000        0.2500007425
Zn            0.2500007425        0.2500007425        0.0000000000
S             0.1250003248        0.3750010673        0.3750010673
S             0.1250003248        0.1250003248        0.1250003248
S             0.3750010673        0.3750010673        0.1250003248
S             0.3750010673        0.1250003248        0.3750010673
Zn            0.0000000000        0.0000000000        0.5000014850
Zn            0.0000000000        0.2500007425        0.7500022274
Zn            0.2500007425        0.0000000000        0.7500022274
Zn            0.2500007425        0.2500007425        0.5000014850
S             0.1250003248        0.3750010673        0.8750025523
S             0.1250003248        0.1250003248        0.6250018098
S             0.3750010673        0.3750010673        0.6250018098
S             0.3750010673        0.1250003248        0.8750025523
Zn            0.0000000000        0.5000014850        0.0000000000
Zn            0.0000000000        0.7500022274        0.2500007425
Zn            0.2500007425        0.5000014850        0.2500007425
Zn            0.2500007425        0.7500022274        0.0000000000
S             0.1250003248        0.8750025523        0.3750010673
S             0.1250003248        0.6250018098        0.1250003248
S             0.3750010673        0.8750025523        0.1250003248
S             0.3750010673        0.6250018098        0.3750010673
Zn            0.0000000000        0.5000014850        0.5000014850
Zn            0.0000000000        0.7500022274        0.7500022274
Zn            0.2500007425        0.5000014850        0.7500022274
Zn            0.2500007425        0.7500022274        0.5000014850
S             0.1250003248        0.8750025523        0.8750025523
S             0.1250003248        0.6250018098        0.6250018098
S             0.3750010673        0.8750025523        0.6250018098
S             0.3750010673        0.6250018098        0.8750025523
Zn            0.5000014850        0.0000000000        0.0000000000
Zn            0.5000014850        0.2500007425        0.2500007425
Zn            0.7500022274        0.0000000000        0.2500007425
Zn            0.7500022274        0.2500007425        0.0000000000
S             0.6250018098        0.3750010673        0.3750010673
S             0.6250018098        0.1250003248        0.1250003248
S             0.8750025523        0.3750010673        0.1250003248
S             0.8750025523        0.1250003248        0.3750010673
Zn            0.5000014850        0.0000000000        0.5000014850
Zn            0.5000014850        0.2500007425        0.7500022274
Zn            0.7500022274        0.0000000000        0.7500022274
Zn            0.7500022274        0.2500007425        0.5000014850
S             0.6250018098        0.3750010673        0.8750025523
S             0.6250018098        0.1250003248        0.6250018098
S             0.8750025523        0.3750010673        0.6250018098
S             0.8750025523        0.1250003248        0.8750025523
Zn            0.5000014850        0.5000014850        0.0000000000
Zn            0.5000014850        0.7500022274        0.2500007425
Zn            0.7500022274        0.5000014850        0.2500007425
Zn            0.7500022274        0.7500022274        0.0000000000
S             0.6250018098        0.8750025523        0.3750010673
S             0.6250018098        0.6250018098        0.1250003248
S             0.8750025523        0.8750025523        0.1250003248
S             0.8750025523        0.6250018098        0.3750010673
Cu            0.5000014850        0.5000014850        0.5000014850
Zn            0.5000014850        0.7500022274        0.7500022274
Zn            0.7500022274        0.5000014850        0.7500022274
Zn            0.7500022274        0.7500022274        0.5000014850
S             0.6250018098        0.8750025523        0.8750025523
S             0.6250018098        0.6250018098        0.6250018098
S             0.8750025523        0.8750025523        0.6250018098
S             0.8750025523        0.6250018098        0.8750025523
K_POINTS automatic
  4   4   4   0   0   0