&INPUTPP
prefix='Co_q0'
outdir='out'
filplot='Co_in_ZnS.q0.pp'
plot_num = 11
/
&PLOT
nfile=1
filepp(1)='Co_in_ZnS.q0.pp'
iflag=3
output_format=6
fileout='4.v_elec.Co_in_ZnS.q0.cube'
/
