&DOS
    outdir  =  'out/'
    prefix  =  'Co_q0'
    fildos  =  '5.Co_in_ZnS.q0.dos'
    Emin = -15
    Emax = 15
/
