&CONTROL
  calculation = 'relax'
  outdir = './out/'
  prefix = 'Co_q0' 
  pseudo_dir = '/arf/home/amuhaymin/pseudo/' 
  verbosity = 'high'
  disk_io = 'none'
  etot_conv_thr = 1.0D-5
  forc_conv_thr = 1.0D-4
  tstress = .true.
  tprnfor = .true.
/
&SYSTEM
  ecutwfc = 150
  ecutrho = 600
  ibrav = 1
  a = 10.88441000000
  nat = 63
  ntyp = 3
  occupations = 'smearing'
  smearing = 'gauss'
  degauss = 0.001
  nspin = 2
  starting_magnetization(3) = 0.17647058823529411764
/
&ELECTRONS
  conv_thr =   1d-08
/
&IONS
/
ATOMIC_SPECIES
S      32.065 S.pbe-n-kjpaw_psl.1.0.0.UPF
Zn     65.38 Zn.pbe-dnl-kjpaw_psl.1.0.0.UPF
Co     63.546   Co.pbe-spn-kjpaw_psl.0.3.1.UPF
ATOMIC_POSITIONS crystal
Zn            0.0000864802        0.0000864802        0.0000864802
Zn            0.0001035839        0.2500648523        0.2500648523
Zn            0.2500648523        0.0001035839        0.2500648523
Zn            0.2500648523        0.2500648523        0.0001035839
S             0.1248015264        0.3750012484        0.3750012484
S             0.1249703189        0.1249703189        0.1249703189
S             0.3750012484        0.3750012484        0.1248015264
S             0.3750012484        0.1248015264        0.3750012484
Zn           -0.0000789508       -0.0000789508        0.4996279258
Zn           -0.0000408450        0.2502097135        0.7502937996
Zn            0.2502097135       -0.0000408450        0.7502937996
Zn            0.2514027803        0.2514027803        0.5007100594
S             0.1250331121        0.3751005945        0.8749113589
S             0.1250064998        0.1250064998        0.6249804493
S             0.3800749392        0.3800749392        0.6217067976
S             0.3751005945        0.1250331121        0.8749113589
Zn           -0.0000789508        0.4996279258       -0.0000789508
Zn           -0.0000408450        0.7502937996        0.2502097135
Zn            0.2514027803        0.5007100594        0.2514027803
Zn            0.2502097135        0.7502937996       -0.0000408450
S             0.1250331121        0.8749113589        0.3751005945
S             0.1250064998        0.6249804493        0.1250064998
S             0.3751005945        0.8749113589        0.1250331121
S             0.3800749392        0.6217067976        0.3800749392
Zn            0.0003300414        0.5001023480        0.5001023480
Zn            0.0002544434        0.7497507789        0.7497507789
Zn            0.2508907099        0.4989433293        0.7485542202
Zn            0.2508907099        0.7485542202        0.4989433293
S             0.1249548500        0.8749174937        0.8749174937
S             0.1248937592        0.6251268046        0.6251268046
S             0.3763894100        0.8736266337        0.6245910531
S             0.3763894100        0.6245910531        0.8736266337
Zn            0.4996279258       -0.0000789508       -0.0000789508
Zn            0.5007100594        0.2514027803        0.2514027803
Zn            0.7502937996       -0.0000408450        0.2502097135
Zn            0.7502937996        0.2502097135       -0.0000408450
S             0.6217067976        0.3800749392        0.3800749392
S             0.6249804493        0.1250064998        0.1250064998
S             0.8749113589        0.3751005945        0.1250331121
S             0.8749113589        0.1250331121        0.3751005945
Zn            0.5001023480        0.0003300414        0.5001023480
Zn            0.4989433293        0.2508907099        0.7485542202
Zn            0.7497507789        0.0002544434        0.7497507789
Zn            0.7485542202        0.2508907099        0.4989433293
S             0.6245910531        0.3763894100        0.8736266337
S             0.6251268046        0.1248937592        0.6251268046
S             0.8736266337        0.3763894100        0.6245910531
S             0.8749174937        0.1249548500        0.8749174937
Zn            0.5001023480        0.5001023480        0.0003300414
Zn            0.4989433293        0.7485542202        0.2508907099
Zn            0.7485542202        0.4989433293        0.2508907099
Zn            0.7497507789        0.7497507789        0.0002544434
S             0.6245910531        0.8736266337        0.3763894100
S             0.6251268046        0.6251268046        0.1248937592
S             0.8749174937        0.8749174937        0.1249548500
S             0.8736266337        0.6245910531        0.3763894100
Co            0.4976938244        0.4976938244        0.4976938244
Zn            0.5031777639        0.7469098781        0.7469098781
Zn            0.7469098781        0.5031777639        0.7469098781
Zn            0.7469098781        0.7469098781        0.5031777639
S             0.6256162458        0.8737642029        0.8737642029
S             0.8737642029        0.8737642029        0.6256162458
S             0.8737642029        0.6256162458        0.8737642029
K_POINTS automatic
4 4 4 0 0 0
