&CONTROL
  calculation = 'scf'
  outdir = './out/'
  prefix = 'Co_q0' 
  pseudo_dir = '/arf/home/amuhaymin/pseudo/' 
  verbosity = 'high'
  disk_io = 'nowf'
/
&SYSTEM
  ecutwfc = 150
  ecutrho = 600
  ibrav = 1
  a = 10.88441000000
  nat = 64
  ntyp = 3
  occupations = 'smearing'
  smearing = 'gauss'
  degauss = 0.001
  nspin = 2
  starting_magnetization(3) = 0.17647058823529411764
/
&ELECTRONS
  conv_thr =   1d-08
/
ATOMIC_SPECIES
S      32.065 S.pbe-n-kjpaw_psl.1.0.0.UPF
Zn     65.38 Zn.pbe-dnl-kjpaw_psl.1.0.0.UPF
Co     63.546   Co.pbe-spn-kjpaw_psl.0.3.1.UPF
ATOMIC_POSITIONS crystal
Zn            0.0000000000       -0.0000000000        0.0000000000
Zn            0.0000725672        0.2501035622        0.2501035622
Zn            0.2501035622        0.0000725672        0.2501035622
Zn            0.2501035622        0.2501035622        0.0000725672
S             0.1251637690        0.3750916787        0.3750916787
S             0.1250111397        0.1250111397        0.1250111397
S             0.3750916787        0.3750916787        0.1251637690
S             0.3750916787        0.1251637690        0.3750916787
Zn            0.0000000000       -0.0000000000        0.5000000000
Zn           -0.0000725672        0.2501035622        0.7498964378
Zn            0.2501035622       -0.0000725672        0.7498964378
Zn            0.2510105568        0.2510105568        0.5002689328
S             0.1254515898        0.3751545213        0.8745484102
S             0.1254515898        0.1254515898        0.6248454787
S             0.3782651037        0.3782651037        0.6217348963
S             0.3751545213        0.1254515898        0.8745484102
Zn            0.0000000000        0.5000000000        0.0000000000
Zn           -0.0000725672        0.7498964378        0.2501035622
Zn            0.2510105568        0.5002689328        0.2510105568
Zn            0.2501035622        0.7498964378       -0.0000725672
S             0.1254515898        0.8745484102        0.3751545213
S             0.1254515898        0.6248454787        0.1254515898
S             0.3751545213        0.8745484102        0.1254515898
S             0.3782651037        0.6217348963        0.3782651037
Zn            0.0000000000        0.5000000000        0.5000000000
Zn            0.0000725672        0.7498964378        0.7498964378
Zn            0.2510105568        0.4997310672        0.7489894432
Zn            0.2510105568        0.7489894432        0.4997310672
S             0.1250111397        0.8749888603        0.8749888603
S             0.1251637690        0.6249083213        0.6249083213
S             0.3750916787        0.8748362310        0.6249083213
S             0.3750916787        0.6249083213        0.8748362310
Zn            0.5000000000       -0.0000000000        0.0000000000
Zn            0.5002689328        0.2510105568        0.2510105568
Zn            0.7498964378       -0.0000725672        0.2501035622
Zn            0.7498964378        0.2501035622       -0.0000725672
S             0.6217348963        0.3782651037        0.3782651037
S             0.6248454787        0.1254515898        0.1254515898
S             0.8745484102        0.3751545213        0.1254515898
S             0.8745484102        0.1254515898        0.3751545213
Zn            0.5000000000       -0.0000000000        0.5000000000
Zn            0.4997310672        0.2510105568        0.7489894432
Zn            0.7498964378        0.0000725672        0.7498964378
Zn            0.7489894432        0.2510105568        0.4997310672
S             0.6249083213        0.3750916787        0.8748362310
S             0.6249083213        0.1251637690        0.6249083213
S             0.8748362310        0.3750916787        0.6249083213
S             0.8749888603        0.1250111397        0.8749888603
Zn            0.5000000000        0.5000000000        0.0000000000
Zn            0.4997310672        0.7489894432        0.2510105568
Zn            0.7489894432        0.4997310672        0.2510105568
Zn            0.7498964378        0.7498964378        0.0000725672
S             0.6249083213        0.8748362310        0.3750916787
S             0.6249083213        0.6249083213        0.1251637690
S             0.8749888603        0.8749888603        0.1250111397
S             0.8748362310        0.6249083213        0.3750916787
Co            0.5000000000        0.5000000000        0.5000000000
Zn            0.5002689328        0.7489894432        0.7489894432
Zn            0.7489894432        0.5002689328        0.7489894432
Zn            0.7489894432        0.7489894432        0.5002689328
S             0.6248454787        0.8745484102        0.8745484102
S             0.6217348963        0.6217348963        0.6217348963
S             0.8745484102        0.8745484102        0.6248454787
S             0.8745484102        0.6248454787        0.8745484102
K_POINTS automatic
4 4 4 0 0 0
