&CONTROL
  calculation = 'nscf'
  outdir = './out/'
  prefix = 'Co_vac_q0' 
  pseudo_dir = '/arf/home/amuhaymin/pseudo/' 
  verbosity = 'high'
  disk_io = 'low'
/
&SYSTEM
  ecutwfc = 150
  ecutrho = 600
  ibrav = 1
  a = 10.88441000000
  nat = 63
  ntyp = 3
  occupations = 'tetrahedra_opt'
  nspin = 2
  starting_magnetization(3) = 0.17647058823529411764
/
&ELECTRONS
  conv_thr =   1d-08
/
ATOMIC_SPECIES
S      32.065 S.pbe-n-kjpaw_psl.1.0.0.UPF
Zn     65.38 Zn.pbe-dnl-kjpaw_psl.1.0.0.UPF
Co     63.546   Co.pbe-spn-kjpaw_psl.0.3.1.UPF
ATOMIC_POSITIONS (crystal)
Zn            0.0001734921        0.0001734921        0.0001734921
Zn           -0.0007469018        0.2501785391        0.2501785391
Zn            0.2501785391       -0.0007469018        0.2501785391
Zn            0.2501785391        0.2501785391       -0.0007469018
S             0.1244194194        0.3756113514        0.3756113514
S             0.1253147237        0.1253147237        0.1253147237
S             0.3756113514        0.3756113514        0.1244194194
S             0.3756113514        0.1244194194        0.3756113514
Zn           -0.0021128157       -0.0021128157        0.5011590138
Zn           -0.0028323140        0.2538812765        0.7489566741
Zn            0.2538812765       -0.0028323140        0.7489566741
Zn            0.2505400387        0.2505400387        0.5001911232
S             0.1257082381        0.3764886298        0.8738462709
S             0.1249122187        0.1249122187        0.6257673886
S             0.3796435162        0.3796435162        0.6217810117
S             0.3764886298        0.1257082381        0.8738462709
Zn           -0.0021128157        0.5011590138       -0.0021128157
Zn           -0.0028323140        0.7489566741        0.2538812765
Zn            0.2505400387        0.5001911232        0.2505400387
Zn            0.2538812765        0.7489566741       -0.0028323140
S             0.1257082381        0.8738462709        0.3764886298
S             0.1249122187        0.6257673886        0.1249122187
S             0.3764886298        0.8738462709        0.1257082381
S             0.3796435162        0.6217810117        0.3796435162
Zn           -0.0019361803        0.5003272783        0.5003272783
Zn           -0.0003079394        0.7507242544        0.7507242544
Zn            0.2519392829        0.5020620283        0.7495543431
Zn            0.2519392829        0.7495543431        0.5020620283
S             0.1263400822        0.8750072337        0.8750072337
S             0.1248761973        0.6250987269        0.6250987269
S             0.3822471030        0.8684635074        0.6265789630
S             0.3822471030        0.6265789630        0.8684635074
Zn            0.5011590138       -0.0021128157       -0.0021128157
Zn            0.5001911232        0.2505400387        0.2505400387
Zn            0.7489566741       -0.0028323140        0.2538812765
Zn            0.7489566741        0.2538812765       -0.0028323140
S             0.6217810117        0.3796435162        0.3796435162
S             0.6257673886        0.1249122187        0.1249122187
S             0.8738462709        0.3764886298        0.1257082381
S             0.8738462709        0.1257082381        0.3764886298
Zn            0.5003272783       -0.0019361803        0.5003272783
Zn            0.5020620283        0.2519392829        0.7495543431
Zn            0.7507242544       -0.0003079394        0.7507242544
Zn            0.7495543431        0.2519392829        0.5020620283
S             0.6265789630        0.3822471030        0.8684635074
S             0.6250987269        0.1248761973        0.6250987269
S             0.8684635074        0.3822471030        0.6265789630
S             0.8750072337        0.1263400822        0.8750072337
Zn            0.5003272783        0.5003272783       -0.0019361803
Zn            0.5020620283        0.7495543431        0.2519392829
Zn            0.7495543431        0.5020620283        0.2519392829
Zn            0.7507242544        0.7507242544       -0.0003079394
S             0.6265789630        0.8684635074        0.3822471030
S             0.6250987269        0.6250987269        0.1248761973
S             0.8750072337        0.8750072337        0.1263400822
S             0.8684635074        0.6265789630        0.3822471030
Co            0.4991474171        0.4991474171        0.4991474171
Zn            0.5248225978        0.7312372350        0.7312372350
Zn            0.7312372350        0.5248225978        0.7312372350
Zn            0.7312372350        0.7312372350        0.5248225978
S             0.6255549512        0.8711602219        0.8711602219
S             0.8711602219        0.8711602219        0.6255549512
S             0.8711602219        0.6255549512        0.8711602219
K_POINTS automatic
4 4 4 0 0 0
