&PROJWFC
 prefix = "Co_vac_q0"
 outdir = "./out/"
 filpdos = "Co_vac_in_ZnS.q0"
 Emin = -15
 Emax = 15
/
