&PROJWFC
 prefix = "Ni_qn1_unrlxd"
 outdir = "./out/"
 filpdos = "Ni_in_ZnS.qn1.unrlxd"
 Emin = -15
 Emax = 15
/
