&INPUTPP
prefix='Fe_vac_qp2_unrlxd'
outdir='out'
filplot='Fe_vac_in_ZnS.qp2.unrlxd.pp'
plot_num = 11
/
&PLOT
nfile=1
filepp(1)='Fe_vac_in_ZnS.qp2.unrlxd.pp'
iflag=3
output_format=6
fileout='4.v_elec.Fe_vac_in_ZnS.qp2.unrlxd.cube'
/
