&PROJWFC
 prefix = "Fe_vac_qp2_unrlxd"
 outdir = "./out/"
 filpdos = "Fe_vac_in_ZnS.qp2.unrlxd"
 Emin = -15
 Emax = 15
/
