&CONTROL
  calculation = 'nscf'
  outdir = './out/'
  prefix = 'Fe_q0' 
  pseudo_dir = '/arf/home/amuhaymin/pseudo/' 
  verbosity = 'high'
  disk_io = 'low'
/
&SYSTEM
  ecutwfc = 150
  ecutrho = 600
  ibrav = 1
  a = 10.88441000000
  nat = 64
  ntyp = 3
  occupations = 'tetrahedra_opt'
  nspin = 2
  starting_magnetization(3) = 0.25000000000000000
/
&ELECTRONS
  conv_thr =   1d-08
/
ATOMIC_SPECIES
S      32.065 S.pbe-n-kjpaw_psl.1.0.0.UPF
Zn     65.38 Zn.pbe-dnl-kjpaw_psl.1.0.0.UPF
Fe     63.546   Fe.pbe-spn-kjpaw_psl.1.0.0.UPF
ATOMIC_POSITIONS crystal
Zn            0.0000000000        0.0000000000        0.0000000000
Zn            0.0000767836        0.2500361239        0.2500361239
Zn            0.2500361239        0.0000767836        0.2500361239
Zn            0.2500361239        0.2500361239        0.0000767836
S             0.1250706875        0.3750435525        0.3750435525
S             0.1250008914        0.1250008914        0.1250008914
S             0.3750435525        0.3750435525        0.1250706875
S             0.3750435525        0.1250706875        0.3750435525
Zn            0.0000000000        0.0000000000        0.5000000000
Zn           -0.0000767836        0.2500361239        0.7499638761
Zn            0.2500361239       -0.0000767836        0.7499638761
Zn            0.2502072318        0.2502072318        0.5002164378
S             0.1250638550        0.3749723761        0.8749361450
S             0.1250638550        0.1250638550        0.6250276239
S             0.3761959464        0.3761959464        0.6238040536
S             0.3749723761        0.1250638550        0.8749361450
Zn            0.0000000000        0.5000000000        0.0000000000
Zn           -0.0000767836        0.7499638761        0.2500361239
Zn            0.2502072318        0.5002164378        0.2502072318
Zn            0.2500361239        0.7499638761       -0.0000767836
S             0.1250638550        0.8749361450        0.3749723761
S             0.1250638550        0.6250276239        0.1250638550
S             0.3749723761        0.8749361450        0.1250638550
S             0.3761959464        0.6238040536        0.3761959464
Zn            0.0000000000        0.5000000000        0.5000000000
Zn            0.0000767836        0.7499638761        0.7499638761
Zn            0.2502072318        0.4997835622        0.7497927682
Zn            0.2502072318        0.7497927682        0.4997835622
S             0.1250008914        0.8749991086        0.8749991086
S             0.1250706875        0.6249564475        0.6249564475
S             0.3750435525        0.8749293125        0.6249564475
S             0.3750435525        0.6249564475        0.8749293125
Zn            0.5000000000       -0.0000000000        0.0000000000
Zn            0.5002164378        0.2502072318        0.2502072318
Zn            0.7499638761       -0.0000767836        0.2500361239
Zn            0.7499638761        0.2500361239       -0.0000767836
S             0.6238040536        0.3761959464        0.3761959464
S             0.6250276239        0.1250638550        0.1250638550
S             0.8749361450        0.3749723761        0.1250638550
S             0.8749361450        0.1250638550        0.3749723761
Zn            0.5000000000        0.0000000000        0.5000000000
Zn            0.4997835622        0.2502072318        0.7497927682
Zn            0.7499638761        0.0000767836        0.7499638761
Zn            0.7497927682        0.2502072318        0.4997835622
S             0.6249564475        0.3750435525        0.8749293125
S             0.6249564475        0.1250706875        0.6249564475
S             0.8749293125        0.3750435525        0.6249564475
S             0.8749991086        0.1250008914        0.8749991086
Zn            0.5000000000        0.5000000000        0.0000000000
Zn            0.4997835622        0.7497927682        0.2502072318
Zn            0.7497927682        0.4997835622        0.2502072318
Zn            0.7499638761        0.7499638761        0.0000767836
S             0.6249564475        0.8749293125        0.3750435525
S             0.6249564475        0.6249564475        0.1250706875
S             0.8749991086        0.8749991086        0.1250008914
S             0.8749293125        0.6249564475        0.3750435525
Fe            0.5000000000        0.5000000000        0.5000000000
Zn            0.5002164378        0.7497927682        0.7497927682
Zn            0.7497927682        0.5002164378        0.7497927682
Zn            0.7497927682        0.7497927682        0.5002164378
S             0.6250276239        0.8749361450        0.8749361450
S             0.6238040536        0.6238040536        0.6238040536
S             0.8749361450        0.8749361450        0.6250276239
S             0.8749361450        0.6250276239        0.8749361450
K_POINTS automatic
4 4 4 0 0 0
