&INPUTPP
prefix='Fe_q0'
outdir='out'
filplot='Fe_in_ZnS.q0.pp'
plot_num = 11
/
&PLOT
nfile=1
filepp(1)='Fe_in_ZnS.q0.pp'
iflag=3
output_format=6
fileout='4.v_elec.Fe_in_ZnS.q0.cube'
/
