&DOS
    outdir  =  'out/'
    prefix  =  'Fe_q0'
    fildos  =  '5.Fe_in_ZnS.q0.dos'
    Emin = -15
    Emax = 15
/
