&PROJWFC
 prefix = "Fe_q0"
 outdir = "./out/"
 filpdos = "Fe_in_ZnS.q0"
 Emin = -15
 Emax = 15
/
