&CONTROL
  calculation = 'relax'
  outdir = './out/'
  prefix = 'Fe_qn2' 
  pseudo_dir = '/arf/home/amuhaymin/pseudo/' 
  verbosity = 'high'
  disk_io = 'none'
  etot_conv_thr = 1.0D-5
  forc_conv_thr = 1.0D-4
  tstress = .true.
  tprnfor = .true.
/
&SYSTEM
  ecutwfc = 150
  ecutrho = 600
  ibrav = 1
  a = 10.88441000000
  nat = 63
  ntyp = 3
  occupations = 'smearing'
  smearing = 'gauss'
  degauss = 0.001
  nspin = 2
  starting_magnetization(3) = 0.125000000000000000000
  tot_charge = -2
/
&ELECTRONS
  conv_thr =   1d-08
/
&IONS
/
ATOMIC_SPECIES
S      32.065 S.pbe-n-kjpaw_psl.1.0.0.UPF
Zn     65.38 Zn.pbe-dnl-kjpaw_psl.1.0.0.UPF
Fe     63.546   Fe.pbe-spn-kjpaw_psl.1.0.0.UPF
ATOMIC_POSITIONS crystal
Zn           -0.0005672930       -0.0005672930       -0.0005672930
Zn            0.0020164575        0.2521015787        0.2521015787
Zn            0.2521015787        0.0020164575        0.2521015787
Zn            0.2521015787        0.2521015787        0.0020164575
S             0.1286381708        0.3772523720        0.3772523720
S             0.1255193223        0.1255193223        0.1255193223
S             0.3772523720        0.3772523720        0.1286381708
S             0.3772523720        0.1286381708        0.3772523720
Zn           -0.0047944470       -0.0047944470        0.5037366779
Zn           -0.0015992808        0.2513280361        0.7490664172
Zn            0.2513280361       -0.0015992808        0.7490664172
Zn            0.2589171171        0.2589171171        0.5060247367
S             0.1253242674        0.3753012612        0.8756183245
S             0.1264983124        0.1264983124        0.6241792123
S             0.3888021775        0.3888021775        0.6249444791
S             0.3753012612        0.1253242674        0.8756183245
Zn           -0.0047944470        0.5037366779       -0.0047944470
Zn           -0.0015992808        0.7490664172        0.2513280361
Zn            0.2589171171        0.5060247367        0.2589171171
Zn            0.2513280361        0.7490664172       -0.0015992808
S             0.1253242674        0.8756183245        0.3753012612
S             0.1264983124        0.6241792123        0.1264983124
S             0.3753012612        0.8756183245        0.1253242674
S             0.3888021775        0.6249444791        0.3888021775
Zn           -0.0015526867        0.5008831051        0.5008831051
Zn           -0.0074487874        0.7481719886        0.7481719886
Zn            0.2534171088        0.5001251451        0.7505933854
Zn            0.2534171088        0.7505933854        0.5001251451
S             0.1232549803        0.8736044320        0.8736044320
S             0.1257143976        0.6256132983        0.6256132983
S             0.3775665760        0.8736066709        0.6264381891
S             0.3775665760        0.6264381891        0.8736066709
Zn            0.5037366779       -0.0047944470       -0.0047944470
Zn            0.5060247367        0.2589171171        0.2589171171
Zn            0.7490664172       -0.0015992808        0.2513280361
Zn            0.7490664172        0.2513280361       -0.0015992808
S             0.6249444791        0.3888021775        0.3888021775
S             0.6241792123        0.1264983124        0.1264983124
S             0.8756183245        0.3753012612        0.1253242674
S             0.8756183245        0.1253242674        0.3753012612
Zn            0.5008831051       -0.0015526867        0.5008831051
Zn            0.5001251451        0.2534171088        0.7505933854
Zn            0.7481719886       -0.0074487874        0.7481719886
Zn            0.7505933854        0.2534171088        0.5001251451
S             0.6264381891        0.3775665760        0.8736066709
S             0.6256132983        0.1257143976        0.6256132983
S             0.8736066709        0.3775665760        0.6264381891
S             0.8736044320        0.1232549803        0.8736044320
Zn            0.5008831051        0.5008831051       -0.0015526867
Zn            0.5001251451        0.7505933854        0.2534171088
Zn            0.7505933854        0.5001251451        0.2534171088
Zn            0.7481719886        0.7481719886       -0.0074487874
S             0.6264381891        0.8736066709        0.3775665760
S             0.6256132983        0.6256132983        0.1257143976
S             0.8736044320        0.8736044320        0.1232549803
S             0.8736066709        0.6264381891        0.3775665760
Fe            0.5385624596        0.5385624596        0.5385624596
Zn            0.5130442809        0.7057503810        0.7057503810
Zn            0.7057503810        0.5130442809        0.7057503810
Zn            0.7057503810        0.7057503810        0.5130442809
S             0.6194642222        0.8651482684        0.8651482684
S             0.8651482684        0.8651482684        0.6194642222
S             0.8651482684        0.6194642222        0.8651482684
K_POINTS automatic
4 4 4 0 0 0
