&CONTROL
  calculation = 'scf'
  outdir = './out/'
  prefix = 'Fe_vac_qn2' 
  pseudo_dir = '/arf/home/amuhaymin/pseudo/' 
  verbosity = 'high'
  disk_io = 'low'
/
&SYSTEM
  ecutwfc = 150
  ecutrho = 600
  ibrav = 1
  a = 10.88441000000
  nat = 63
  ntyp = 3
  occupations = 'smearing'
  smearing = 'gauss'
  degauss = 0.001
  nspin = 2
  starting_magnetization(3) = 0.125000000000000000000
  tot_charge = -2
/
&ELECTRONS
  conv_thr =   1d-08
/
ATOMIC_SPECIES
S      32.065 S.pbe-n-kjpaw_psl.1.0.0.UPF
Zn     65.38 Zn.pbe-dnl-kjpaw_psl.1.0.0.UPF
Fe     63.546   Fe.pbe-spn-kjpaw_psl.1.0.0.UPF
ATOMIC_POSITIONS crystal
Zn           -0.0005358550       -0.0005358550       -0.0005358550
Zn            0.0019983438        0.2521645878        0.2521645878
Zn            0.2521645878        0.0019983438        0.2521645878
Zn            0.2521645878        0.2521645878        0.0019983438
S             0.1285990709        0.3773339217        0.3773339217
S             0.1255893552        0.1255893552        0.1255893552
S             0.3773339217        0.3773339217        0.1285990709
S             0.3773339217        0.1285990709        0.3773339217
Zn           -0.0049521366       -0.0049521366        0.5042138825
Zn           -0.0016603029        0.2515656282        0.7492973132
Zn            0.2515656282       -0.0016603029        0.7492973132
Zn            0.2586408007        0.2586408007        0.5061556092
S             0.1253071571        0.3755154634        0.8757880780
S             0.1264100427        0.1264100427        0.6245395703
S             0.3885519868        0.3885519868        0.6248906744
S             0.3755154634        0.1253071571        0.8757880780
Zn           -0.0049521366        0.5042138825       -0.0049521366
Zn           -0.0016603029        0.7492973132        0.2515656282
Zn            0.2586408007        0.5061556092        0.2586408007
Zn            0.2515656282        0.7492973132       -0.0016603029
S             0.1253071571        0.8757880780        0.3755154634
S             0.1264100427        0.6245395703        0.1264100427
S             0.3755154634        0.8757880780        0.1253071571
S             0.3885519868        0.6248906744        0.3885519868
Zn           -0.0015167501        0.5010867105        0.5010867105
Zn           -0.0074876913        0.7484558695        0.7484558695
Zn            0.2533940270        0.5001616220        0.7505539934
Zn            0.2533940270        0.7505539934        0.5001616220
S             0.1233796147        0.8737285885        0.8737285885
S             0.1257101407        0.6257877549        0.6257877549
S             0.3776568270        0.8736147952        0.6264090680
S             0.3776568270        0.6264090680        0.8736147952
Zn            0.5042138825       -0.0049521366       -0.0049521366
Zn            0.5061556092        0.2586408007        0.2586408007
Zn            0.7492973132       -0.0016603029        0.2515656282
Zn            0.7492973132        0.2515656282       -0.0016603029
S             0.6248906744        0.3885519868        0.3885519868
S             0.6245395703        0.1264100427        0.1264100427
S             0.8757880780        0.3755154634        0.1253071571
S             0.8757880780        0.1253071571        0.3755154634
Zn            0.5010867105       -0.0015167501        0.5010867105
Zn            0.5001616220        0.2533940270        0.7505539934
Zn            0.7484558695       -0.0074876913        0.7484558695
Zn            0.7505539934        0.2533940270        0.5001616220
S             0.6264090680        0.3776568270        0.8736147952
S             0.6257877549        0.1257101407        0.6257877549
S             0.8736147952        0.3776568270        0.6264090680
S             0.8737285885        0.1233796147        0.8737285885
Zn            0.5010867105        0.5010867105       -0.0015167501
Zn            0.5001616220        0.7505539934        0.2533940270
Zn            0.7505539934        0.5001616220        0.2533940270
Zn            0.7484558695        0.7484558695       -0.0074876913
S             0.6264090680        0.8736147952        0.3776568270
S             0.6257877549        0.6257877549        0.1257101407
S             0.8737285885        0.8737285885        0.1233796147
S             0.8736147952        0.6264090680        0.3776568270
Fe            0.5377836455        0.5377836455        0.5377836455
Zn            0.5124342749        0.7049406116        0.7049406116
Zn            0.7049406116        0.5124342749        0.7049406116
Zn            0.7049406116        0.7049406116        0.5124342749
S             0.6195605715        0.8650903639        0.8650903639
S             0.8650903639        0.8650903639        0.6195605715
S             0.8650903639        0.6195605715        0.8650903639
K_POINTS automatic
4 4 4 0 0 0
