&PROJWFC
 prefix = "Fe_vac_qn2"
 outdir = "./out/"
 filpdos = "Fe_vac_in_ZnS.qn2"
 Emin = -15
 Emax = 15
/
