&DOS
    outdir  =  'out/'
    prefix  =  'Cu_vac_q0_unrlxd'
    fildos  =  '5.Cu_vac_in_ZnS.q0.unrlxd.dos'
    Emin = -15
    Emax = 15
/
