&CONTROL
  calculation = 'nscf'
  outdir = './out/'
  prefix = 'Ni_qn1' 
  pseudo_dir = '/arf/home/amuhaymin/pseudo/' 
  verbosity = 'high'
  disk_io = 'low'
/
&SYSTEM
  ecutwfc = 150
  ecutrho = 600
  ibrav = 1
  a = 10.88441000000
  nat = 64
  ntyp = 3
  occupations = 'tetrahedra_opt'
  nspin = 2
  starting_magnetization(3) = 0.05555555555555555555556
  tot_charge = -1
/
&ELECTRONS
  conv_thr =   1d-08
/
ATOMIC_SPECIES
S      32.065 S.pbe-n-kjpaw_psl.1.0.0.UPF
Zn     65.38 Zn.pbe-dnl-kjpaw_psl.1.0.0.UPF
Ni     63.546   Ni.pbe-spn-kjpaw_psl.1.0.0.UPF
ATOMIC_POSITIONS crystal
Zn            0.0000000000       -0.0000000000        0.0000000000
Zn            0.0001168790        0.2505327693        0.2505327693
Zn            0.2505327693        0.0001168790        0.2505327693
Zn            0.2505327693        0.2505327693        0.0001168790
S             0.1255384774        0.3751002679        0.3751002679
S             0.1250575036        0.1250575036        0.1250575036
S             0.3751002679        0.3751002679        0.1255384774
S             0.3751002679        0.1255384774        0.3751002679
Zn            0.0000000000       -0.0000000000        0.5000000000
Zn           -0.0001168790        0.2505327693        0.7494672307
Zn            0.2505327693       -0.0001168790        0.7494672307
Zn            0.2529842256        0.2529842256        0.5026889040
S             0.1251197134        0.3751241301        0.8748802866
S             0.1251197134        0.1251197134        0.6248758699
S             0.3787474856        0.3787474856        0.6212525144
S             0.3751241301        0.1251197134        0.8748802866
Zn            0.0000000000        0.5000000000        0.0000000000
Zn           -0.0001168790        0.7494672307        0.2505327693
Zn            0.2529842256        0.5026889040        0.2529842256
Zn            0.2505327693        0.7494672307       -0.0001168790
S             0.1251197134        0.8748802866        0.3751241301
S             0.1251197134        0.6248758699        0.1251197134
S             0.3751241301        0.8748802866        0.1251197134
S             0.3787474856        0.6212525144        0.3787474856
Zn            0.0000000000        0.5000000000        0.5000000000
Zn            0.0001168790        0.7494672307        0.7494672307
Zn            0.2529842256        0.4973110960        0.7470157744
Zn            0.2529842256        0.7470157744        0.4973110960
S             0.1250575036        0.8749424964        0.8749424964
S             0.1255384774        0.6248997321        0.6248997321
S             0.3751002679        0.8744615226        0.6248997321
S             0.3751002679        0.6248997321        0.8744615226
Zn            0.5000000000        0.0000000000        0.0000000000
Zn            0.5026889040        0.2529842256        0.2529842256
Zn            0.7494672307       -0.0001168790        0.2505327693
Zn            0.7494672307        0.2505327693       -0.0001168790
S             0.6212525144        0.3787474856        0.3787474856
S             0.6248758699        0.1251197134        0.1251197134
S             0.8748802866        0.3751241301        0.1251197134
S             0.8748802866        0.1251197134        0.3751241301
Zn            0.5000000000       -0.0000000000        0.5000000000
Zn            0.4973110960        0.2529842256        0.7470157744
Zn            0.7494672307        0.0001168790        0.7494672307
Zn            0.7470157744        0.2529842256        0.4973110960
S             0.6248997321        0.3751002679        0.8744615226
S             0.6248997321        0.1255384774        0.6248997321
S             0.8744615226        0.3751002679        0.6248997321
S             0.8749424964        0.1250575036        0.8749424964
Zn            0.5000000000        0.5000000000        0.0000000000
Zn            0.4973110960        0.7470157744        0.2529842256
Zn            0.7470157744        0.4973110960        0.2529842256
Zn            0.7494672307        0.7494672307        0.0001168790
S             0.6248997321        0.8744615226        0.3751002679
S             0.6248997321        0.6248997321        0.1255384774
S             0.8749424964        0.8749424964        0.1250575036
S             0.8744615226        0.6248997321        0.3751002679
Ni            0.5000000000        0.5000000000        0.5000000000
Zn            0.5026889040        0.7470157744        0.7470157744
Zn            0.7470157744        0.5026889040        0.7470157744
Zn            0.7470157744        0.7470157744        0.5026889040
S             0.6248758699        0.8748802866        0.8748802866
S             0.6212525144        0.6212525144        0.6212525144
S             0.8748802866        0.8748802866        0.6248758699
S             0.8748802866        0.6248758699        0.8748802866
K_POINTS automatic
4 4 4 0 0 0
