&DOS
    outdir  =  'out/'
    prefix  =  'Ni_qn1'
    fildos  =  '5.Ni_in_ZnS.qn1.dos'
    Emin = -15
    Emax = 15
/
