&PROJWFC
 prefix = "Ni_qn1"
 outdir = "./out/"
 filpdos = "Ni_in_ZnS.qn1"
 Emin = -15
 Emax = 15
/
