&DOS
    outdir  =  'out/'
    prefix  =  'Co_qn1_unrlxd'
    fildos  =  '5.Co_in_ZnS.qn1.unrlxd.dos'
    Emin = -15
    Emax = 15
/
