&PROJWFC
 prefix = "Co_qn1_unrlxd"
 outdir = "./out/"
 filpdos = "Co_in_ZnS.qn1.unrlxd"
 Emin = -15
 Emax = 15
/
