 &CONTROL
   calculation     =  'scf'
   outdir          =  './out/'
   prefix          =  'S'
   pseudo_dir      =  '/home/abdul/git_repo/ZnS/pseudo/QE'
   verbosity       =  'high'
 /

 &SYSTEM
   a               =  10
   degauss         =  0.073498618
   ecutwfc         =  50
   ibrav           =  1
   nat             =  2
   ntyp            =  1
   occupations     =  'fixed'
 /

 &ELECTRONS
   conv_thr        =  4e-7
   startingpot     =  'file'
   startingwfc     =  'file'
 /

ATOMIC_SPECIES 
  S    65.38   S.pbe-n-kjpaw_psl.1.0.0.UPF 


ATOMIC_POSITIONS angstrom
  S        0.000000000000   0.000000000000   0.000000000000
  S        1.890000000000   0.000000000000   0.000000000000

K_POINTS gamma



