&PROJWFC
 prefix = "Cu_vac_qn1_U7_unrlxd"
 outdir = "./out/"
 filpdos = "Cu_vac_in_ZnS.qn1.unrlxd.U7"
 Emin = -15
 Emax = 15
/
