 &CONTROL
   calculation     =  'scf'
   outdir          =  './out/'
   prefix          =  'Cu'
   pseudo_dir      =  '/home/abdul/git_repo/ZnS_Cu-Vacancy/pseudo/QE'
   verbosity       =  'high'
 /

 &SYSTEM
   celldm(1)       =  6.8609325
   nspin           = 2
   degauss         =  0.0005
   ecutrho         =  520
   ecutwfc         =  130
   ibrav           =  1
   nat             =  4
   ntyp            =  1
   occupations     =  'smearing'
   smearing        =  'gauss'
   starting_magnetization(1) = 0.1
 /

 &ELECTRONS
   conv_thr        =  1e-8
 /
ATOMIC_SPECIES 
  Cu    63.546   Cu.pbe-spn-kjpaw_psl.1.0.0.UPF 


ATOMIC_POSITIONS (crystal)
Cu            0.0000000000        0.0000000000        0.0000000000
Cu            0.0000000000        0.5000000000        0.5000000000
Cu            0.5000000000        0.0000000000        0.5000000000
Cu            0.5000000000        0.5000000000        0.0000000000

K_POINTS automatic
  14   14   14   0   0   0 