&INPUTPP
prefix='Co_vac_qn2_unrlxd'
outdir='out'
filplot='Co_vac_in_ZnS.qn2.unrlxd.pp'
plot_num = 11
/
&PLOT
nfile=1
filepp(1)='Co_vac_in_ZnS.qn2.unrlxd.pp'
iflag=3
output_format=6
fileout='4.v_elec.Co_vac_in_ZnS.qn2.unrlxd.cube'
/
