&PROJWFC
 prefix = "Co_vac_qn2_unrlxd"
 outdir = "./out/"
 filpdos = "Co_vac_in_ZnS.qn2.unrlxd"
 Emin = -15
 Emax = 15
/
