&CONTROL
  calculation = 'relax'
  outdir = './out/'
  prefix = 'Cu_vac_q0_U7' 
  pseudo_dir = '/arf/home/amuhaymin/pseudo/' 
  verbosity = 'high'
  disk_io = 'none'
  etot_conv_thr = 1.0D-5
  forc_conv_thr = 1.0D-4
/
&SYSTEM
  ecutwfc = 150
  ecutrho = 600
  ibrav = 1
  a = 10.88441000000
  nat = 63
  ntyp = 3
  occupations = 'smearing'
  smearing = 'gauss'
  degauss = 0.001
  nspin = 2
  starting_magnetization(3) = 0.05263157894736842105
/
&ELECTRONS
  conv_thr =   1d-08
/
&IONS
/
ATOMIC_SPECIES
S      32.065 S.pbe-n-kjpaw_psl.1.0.0.UPF
Zn     65.38 Zn.pbe-dnl-kjpaw_psl.1.0.0.UPF
Cu     63.546   Cu.pbe-spn-kjpaw_psl.1.0.0.UPF
ATOMIC_POSITIONS crystal
Zn            0.0001605037        0.0001605037        0.0001605037
Zn            0.0000201817        0.2500706665        0.2500706665
Zn            0.2500706665        0.0000201817        0.2500706665
Zn            0.2500706665        0.2500706665        0.0000201817
S             0.1246246415        0.3749171067        0.3749171067
S             0.1249354914        0.1249354914        0.1249354914
S             0.3749171067        0.3749171067        0.1246246415
S             0.3749171067        0.1246246415        0.3749171067
Zn            0.0002280860        0.0002280860        0.4992969324
Zn            0.0003445892        0.2500233823        0.7504415535
Zn            0.2500233823        0.0003445892        0.7504415535
Zn            0.2511424051        0.2511424051        0.5007210705
S             0.1246301163        0.3751457633        0.8752283936
S             0.1246288048        0.1246288048        0.6250218501
S             0.3763715270        0.3763715270        0.6257369216
S             0.3751457633        0.1246301163        0.8752283936
Zn            0.0002280860        0.4992969324        0.0002280860
Zn            0.0003445892        0.7504415535        0.2500233823
Zn            0.2511424051        0.5007210705        0.2511424051
Zn            0.2500233823        0.7504415535        0.0003445892
S             0.1246301163        0.8752283936        0.3751457633
S             0.1246288048        0.6250218501        0.1246288048
S             0.3751457633        0.8752283936        0.1246301163
S             0.3763715270        0.6257369216        0.3763715270
Zn            0.0006102619        0.5000031103        0.5000031103
Zn            0.0005119189        0.7497633787        0.7497633787
Zn            0.2506633462        0.4986012093        0.7487304743
Zn            0.2506633462        0.7487304743        0.4986012093
S             0.1248863254        0.8748842910        0.8748842910
S             0.1246776969        0.6252576277        0.6252576277
S             0.3760930788        0.8739739096        0.6247702728
S             0.3760930788        0.6247702728        0.8739739096
Zn            0.4992969324        0.0002280860        0.0002280860
Zn            0.5007210705        0.2511424051        0.2511424051
Zn            0.7504415535        0.0003445892        0.2500233823
Zn            0.7504415535        0.2500233823        0.0003445892
S             0.6257369216        0.3763715270        0.3763715270
S             0.6250218501        0.1246288048        0.1246288048
S             0.8752283936        0.3751457633        0.1246301163
S             0.8752283936        0.1246301163        0.3751457633
Zn            0.5000031103        0.0006102619        0.5000031103
Zn            0.4986012093        0.2506633462        0.7487304743
Zn            0.7497633787        0.0005119189        0.7497633787
Zn            0.7487304743        0.2506633462        0.4986012093
S             0.6247702728        0.3760930788        0.8739739096
S             0.6252576277        0.1246776969        0.6252576277
S             0.8739739096        0.3760930788        0.6247702728
S             0.8748842910        0.1248863254        0.8748842910
Zn            0.5000031103        0.5000031103        0.0006102619
Zn            0.4986012093        0.7487304743        0.2506633462
Zn            0.7487304743        0.4986012093        0.2506633462
Zn            0.7497633787        0.7497633787        0.0005119189
S             0.6247702728        0.8739739096        0.3760930788
S             0.6252576277        0.6252576277        0.1246776969
S             0.8748842910        0.8748842910        0.1248863254
S             0.8739739096        0.6247702728        0.3760930788
Cu            0.4976821628        0.4976821628        0.4976821628
Zn            0.4991694260        0.7507903413        0.7507903413
Zn            0.7507903413        0.4991694260        0.7507903413
Zn            0.7507903413        0.7507903413        0.4991694260
S             0.6255640000        0.8739868734        0.8739868734
S             0.8739868734        0.8739868734        0.6255640000
S             0.8739868734        0.6255640000        0.8739868734
K_POINTS automatic
4 4 4 0 0 0
HUBBARD ortho-atomic
U Zn-3d 7.0000
U Cu-3d 7.0000
