 &CONTROL
   calculation     =  'scf'
   outdir          =  './out/'
   prefix          =  'Fe'
   pseudo_dir      =  '/home/abdul/git_repo/ZnS/pseudo/QE/'
   verbosity       =  'high'
 /

 &SYSTEM
   degauss         =  0.01
   ecutrho         =  700
   ecutwfc         =  100
   ibrav           =  0
   nat             =  2
   nspin           =  2
   ntyp            =  1
   occupations     =  'smearing'
   smearing        =  'gauss'
   starting_magnetization(1) =  0.3125
 /

 &ELECTRONS
   conv_thr        =  4e-10
   electron_maxstep =  80
   mixing_beta     =  0.4
   startingpot     =  'file'
   startingwfc     =  'file'
 /

ATOMIC_SPECIES 
  Fe    55.845   Fe.pbe-spn-kjpaw_psl.1.0.0.UPF 


CELL_PARAMETERS angstrom
    2.8630355000000001   0.0000000000000000   0.0000000000000000
    0.0000000000000000   2.8630355000000001   0.0000000000000000
    0.0000000000000000   0.0000000000000000   2.8630355000000001

ATOMIC_POSITIONS crystal
  Fe       0.000000000000   0.000000000000   0.000000000000
  Fe       0.500000000000   0.500000000000   0.500000000000

K_POINTS automatic
  16   16   16   0   0   0 



