 &CONTROL
   calculation     =  'scf'
   outdir          =  'out'
   prefix          =  'Ni'
   pseudo_dir      =  '/truba/home/amuhaymin/ZnS/pseudo/QE/'
   verbosity       =  'high'
 /

 &SYSTEM
   degauss         =  0.007
   ecutrho         =  800
   ecutwfc         =  150
   ibrav           =  0
   nat             =  4
   nosym           =  .false.
   nspin           =  2
   ntyp            =  1
   occupations     =  'smearing'
   smearing        =  'm-v'
   starting_magnetization(1) =  0.27777777778
 /

 &ELECTRONS
   conv_thr        =  8e-8
   startingpot     =  'file'
   startingwfc     =  'file'
 /

ATOMIC_SPECIES 
  Ni    58.6934   Ni.pbe-spn-kjpaw_psl.1.0.0.UPF 


CELL_PARAMETERS angstrom
    3.4751458700000000   0.0000000000000000   0.0000000000000000
    0.0000000000000000   3.4751458700000000   0.0000000000000000
    0.0000000000000000   0.0000000000000000   3.4751458700000000

ATOMIC_POSITIONS crystal
  Ni       0.000000000000   0.000000000000   0.000000000000
  Ni       0.000000000000   0.500000000000   0.500000000000
  Ni       0.500000000000   0.000000000000   0.500000000000
  Ni       0.500000000000   0.500000000000   0.000000000000

K_POINTS automatic
  12   12   12   0   0   0 



