&CONTROL
  calculation = 'scf'
  outdir = './out/'
  prefix = 'ZnS'
  pseudo_dir = '/home/abdul/git_repo/ZnS/pseudo/QE/'
  verbosity = 'high'
  disk_io = 'nowf'
/
&SYSTEM
  degauss =  0.001
  ecutrho =  240
  ecutwfc =  60
  ibrav = 0
  nat = 2
  ntyp = 2
  occupations = 'smearing'
  smearing = 'gauss'
  nspin = 2
  starting_magnetization(1) = 0.000000000000000
  starting_magnetization(2) = 0.000000000000000
/
&ELECTRONS
  conv_thr =   1d-6
/
ATOMIC_SPECIES
S      32.065 S.pbe-n-kjpaw_psl.1.0.0.UPF
Zn     65.38 Zn.pbe-dnl-kjpaw_psl.1.0.0.UPF
ATOMIC_POSITIONS crystal
Zn           0.0000000000       0.0000000000       0.0000000000 
S            0.7500000000       0.7500000000      -0.2500000000 
K_POINTS automatic
10 10 10 0 0 0
CELL_PARAMETERS angstrom
      0.0000000000       2.7211025000       2.7211025000
      2.7211025000       0.0000000000       2.7211025000
      2.7211025000       2.7211025000       0.0000000000
