&DOS
    outdir  =  'out/'
    prefix  =  'ZnS'
    fildos  =  'ZnS.dos'
    Emin = 0
    Emax = 12
/
