&PROJWFC
 prefix = "ZnS"
 outdir = "./out/"
 filpdos = "ZnS"
 Emin = 0
 Emax = 12
/
