&DOS
    outdir  =  'out/'
    prefix  =  'Fe_qn1_unrlxd'
    fildos  =  '5.Fe_in_ZnS.qn1.unrlxd.dos'
    Emin = -15
    Emax = 15
/
