&PROJWFC
 prefix = "Fe_qn1_unrlxd"
 outdir = "./out/"
 filpdos = "Fe_in_ZnS.qn1.unrlxd"
 Emin = -15
 Emax = 15
/
