&INPUTPP
prefix='Fe_vac_qn1_unrlxd'
outdir='out'
filplot='Fe_vac_in_ZnS.qn1.unrlxd.pp'
plot_num = 11
/
&PLOT
nfile=1
filepp(1)='Fe_vac_in_ZnS.qn1.unrlxd.pp'
iflag=3
output_format=6
fileout='4.v_elec.Fe_vac_in_ZnS.qn1.unrlxd.cube'
/
