&DOS
    outdir  =  'out/'
    prefix  =  'Fe_vac_qn1_unrlxd'
    fildos  =  '5.Fe_vac_in_ZnS.qn1.unrlxd.dos'
    Emin = -15
    Emax = 15
/
