&PROJWFC
 prefix = "Fe_vac_qp1_unrlxd"
 outdir = "./out/"
 filpdos = "Fe_vac_in_ZnS.qp1.unrlxd"
 Emin = -15
 Emax = 15
/
