&PROJWFC
 prefix = "Co_vac_qp2_unrlxd"
 outdir = "./out/"
 filpdos = "Co_vac_in_ZnS.qp2.unrlxd"
 Emin = -15
 Emax = 15
/
