&CONTROL
  calculation = 'nscf'
  outdir = './out/'
  prefix = 'Co_qp1' 
  pseudo_dir = '/arf/home/amuhaymin/pseudo/' 
  verbosity = 'high'
  disk_io = 'low'
/
&SYSTEM
  ecutwfc = 150
  ecutrho = 600
  ibrav = 1
  a = 10.88441000000
  nat = 64
  ntyp = 3
  occupations = 'tetrahedra_opt'
  nspin = 2
  starting_magnetization(3) = 0.23529411764705882352
  tot_charge = 1
/
&ELECTRONS
  conv_thr =   1d-08
/
ATOMIC_SPECIES
S      32.065 S.pbe-n-kjpaw_psl.1.0.0.UPF
Zn     65.38 Zn.pbe-dnl-kjpaw_psl.1.0.0.UPF
Co     63.546   Co.pbe-spn-kjpaw_psl.0.3.1.UPF
ATOMIC_POSITIONS crystal
Zn            0.0000000000       -0.0000000000        0.0000000000
Zn            0.0000606355        0.2498799591        0.2498799591
Zn            0.2498799591        0.0000606355        0.2498799591
Zn            0.2498799591        0.2498799591        0.0000606355
S             0.1250469144        0.3752145482        0.3752145482
S             0.1250221619        0.1250221619        0.1250221619
S             0.3752145482        0.3752145482        0.1250469144
S             0.3752145482        0.1250469144        0.3752145482
Zn            0.0000000000        0.0000000000        0.5000000000
Zn           -0.0000606355        0.2498799591        0.7501200409
Zn            0.2498799591       -0.0000606355        0.7501200409
Zn            0.2501861356        0.2501861356        0.4989992325
S             0.1257182740        0.3751871749        0.8742817260
S             0.1257182740        0.1257182740        0.6248128251
S             0.3794353768        0.3794353768        0.6205646232
S             0.3751871749        0.1257182740        0.8742817260
Zn            0.0000000000        0.5000000000        0.0000000000
Zn           -0.0000606355        0.7501200409        0.2498799591
Zn            0.2501861356        0.4989992325        0.2501861356
Zn            0.2498799591        0.7501200409       -0.0000606355
S             0.1257182740        0.8742817260        0.3751871749
S             0.1257182740        0.6248128251        0.1257182740
S             0.3751871749        0.8742817260        0.1257182740
S             0.3794353768        0.6205646232        0.3794353768
Zn            0.0000000000        0.5000000000        0.5000000000
Zn            0.0000606355        0.7501200409        0.7501200409
Zn            0.2501861356        0.5010007675        0.7498138644
Zn            0.2501861356        0.7498138644        0.5010007675
S             0.1250221619        0.8749778381        0.8749778381
S             0.1250469144        0.6247854518        0.6247854518
S             0.3752145482        0.8749530856        0.6247854518
S             0.3752145482        0.6247854518        0.8749530856
Zn            0.5000000000        0.0000000000        0.0000000000
Zn            0.4989992325        0.2501861356        0.2501861356
Zn            0.7501200409       -0.0000606355        0.2498799591
Zn            0.7501200409        0.2498799591       -0.0000606355
S             0.6205646232        0.3794353768        0.3794353768
S             0.6248128251        0.1257182740        0.1257182740
S             0.8742817260        0.3751871749        0.1257182740
S             0.8742817260        0.1257182740        0.3751871749
Zn            0.5000000000        0.0000000000        0.5000000000
Zn            0.5010007675        0.2501861356        0.7498138644
Zn            0.7501200409        0.0000606355        0.7501200409
Zn            0.7498138644        0.2501861356        0.5010007675
S             0.6247854518        0.3752145482        0.8749530856
S             0.6247854518        0.1250469144        0.6247854518
S             0.8749530856        0.3752145482        0.6247854518
S             0.8749778381        0.1250221619        0.8749778381
Zn            0.5000000000        0.5000000000        0.0000000000
Zn            0.5010007675        0.7498138644        0.2501861356
Zn            0.7498138644        0.5010007675        0.2501861356
Zn            0.7501200409        0.7501200409        0.0000606355
S             0.6247854518        0.8749530856        0.3752145482
S             0.6247854518        0.6247854518        0.1250469144
S             0.8749778381        0.8749778381        0.1250221619
S             0.8749530856        0.6247854518        0.3752145482
Co            0.5000000000        0.5000000000        0.5000000000
Zn            0.4989992325        0.7498138644        0.7498138644
Zn            0.7498138644        0.4989992325        0.7498138644
Zn            0.7498138644        0.7498138644        0.4989992325
S             0.6248128251        0.8742817260        0.8742817260
S             0.6205646232        0.6205646232        0.6205646232
S             0.8742817260        0.8742817260        0.6248128251
S             0.8742817260        0.6248128251        0.8742817260
K_POINTS automatic
4 4 4 0 0 0
