&PROJWFC
 prefix = "Co_qp1"
 outdir = "./out/"
 filpdos = "Co_in_ZnS.qp1"
 Emin = -15
 Emax = 15
/
