&CONTROL
  calculation = 'nscf'
  outdir = './out/'
  prefix = 'Cu_vac_q0_U4' 
  pseudo_dir = '/arf/home/amuhaymin/pseudo/' 
  verbosity = 'high'
  disk_io = 'low'
/
&SYSTEM
  ecutwfc = 150
  ecutrho = 600
  ibrav = 1
  a = 10.88441000000
  nat = 63
  ntyp = 3
  occupations = 'tetrahedra_opt"
  nspin = 2
  starting_magnetization(3) = 0.05263157894736842105
/
&ELECTRONS
  conv_thr =   1d-06
/
ATOMIC_SPECIES
S      32.065 S.pbe-n-kjpaw_psl.1.0.0.UPF
Zn     65.38 Zn.pbe-dnl-kjpaw_psl.1.0.0.UPF
Cu     63.546   Cu.pbe-spn-kjpaw_psl.1.0.0.UPF
ATOMIC_POSITIONS crystal
Zn            0.0004645428        0.0004645428        0.0004645428
Zn            0.0002482941        0.2504837990        0.2504837990
Zn            0.2504837990        0.0002482941        0.2504837990
Zn            0.2504837990        0.2504837990        0.0002482941
S             0.1255604658        0.3751986367        0.3751986367
S             0.1252932340        0.1252932340        0.1252932340
S             0.3751986367        0.3751986367        0.1255604658
S             0.3751986367        0.1255604658        0.3751986367
Zn            0.0005644754        0.0005644754        0.4998451714
Zn            0.0000697169        0.2511310439        0.7499708650
Zn            0.2511310439        0.0000697169        0.7499708650
Zn            0.2516863879        0.2516863879        0.5024653006
S             0.1248499012        0.3755721071        0.8753364986
S             0.1248830904        0.1248830904        0.6254761542
S             0.3757772084        0.3757772084        0.6262808405
S             0.3755721071        0.1248499012        0.8753364986
Zn            0.0005644754        0.4998451714        0.0005644754
Zn            0.0000697169        0.7499708650        0.2511310439
Zn            0.2516863879        0.5024653006        0.2516863879
Zn            0.2511310439        0.7499708650        0.0000697169
S             0.1248499012        0.8753364986        0.3755721071
S             0.1248830904        0.6254761542        0.1248830904
S             0.3755721071        0.8753364986        0.1248499012
S             0.3757772084        0.6262808405        0.3757772084
Zn            0.0011759447        0.5000033303        0.5000033303
Zn            0.0023419554        0.7501186209        0.7501186209
Zn            0.2505647491        0.4981866721        0.7481448660
Zn            0.2505647491        0.7481448660        0.4981866721
S             0.1259749111        0.8753575696        0.8753575696
S             0.1253465026        0.6251145727        0.6251145727
S             0.3768929019        0.8730352310        0.6242423622
S             0.3768929019        0.6242423622        0.8730352310
Zn            0.4998451714        0.0005644754        0.0005644754
Zn            0.5024653006        0.2516863879        0.2516863879
Zn            0.7499708650        0.0000697169        0.2511310439
Zn            0.7499708650        0.2511310439        0.0000697169
S             0.6262808405        0.3757772084        0.3757772084
S             0.6254761542        0.1248830904        0.1248830904
S             0.8753364986        0.3755721071        0.1248499012
S             0.8753364986        0.1248499012        0.3755721071
Zn            0.5000033303        0.0011759447        0.5000033303
Zn            0.4981866721        0.2505647491        0.7481448660
Zn            0.7501186209        0.0023419554        0.7501186209
Zn            0.7481448660        0.2505647491        0.4981866721
S             0.6242423622        0.3768929019        0.8730352310
S             0.6251145727        0.1253465026        0.6251145727
S             0.8730352310        0.3768929019        0.6242423622
S             0.8753575696        0.1259749111        0.8753575696
Zn            0.5000033303        0.5000033303        0.0011759447
Zn            0.4981866721        0.7481448660        0.2505647491
Zn            0.7481448660        0.4981866721        0.2505647491
Zn            0.7501186209        0.7501186209        0.0023419554
S             0.6242423622        0.8730352310        0.3768929019
S             0.6251145727        0.6251145727        0.1253465026
S             0.8753575696        0.8753575696        0.1259749111
S             0.8730352310        0.6242423622        0.3768929019
Cu            0.4765391943        0.4765391943        0.4765391943
Zn            0.5003010409        0.7529299734        0.7529299734
Zn            0.7529299734        0.5003010409        0.7529299734
Zn            0.7529299734        0.7529299734        0.5003010409
S             0.6272035306        0.8751268791        0.8751268791
S             0.8751268791        0.8751268791        0.6272035306
S             0.8751268791        0.6272035306        0.8751268791
K_POINTS automatic
4 4 4 0 0 0
HUBBARD ortho-atomic
U Zn-3d 7.0000
U Cu-3d 4.0000
