&DOS
    outdir  =  'out/'
    prefix  =  'Cu_vac_q0_U4'
    fildos  =  '5.Cu_vac_in_ZnS.q0.U.4.dos'
    Emin = -15
    Emax = 15
/
