&PROJWFC
 prefix = "Ni_q0_unrlxd"
 outdir = "./out/"
 filpdos = "Ni_in_ZnS.q0.unrlxd"
 Emin = -15
 Emax = 15
/
