&CONTROL
  calculation = 'scf'
  outdir = './out/'
  prefix = 'Zn'
  pseudo_dir = '/arf/home/amuhaymin/pseudo/' 
  verbosity       =  'high'
 /

&SYSTEM
  degauss =   5d-04
  ecutwfc =   70
  ecutrho = 280
  ibrav = 4
  celldm(1) = 5.04
  celldm(3) = 1.8253936825
  nat = 2
  ntyp = 1
  occupations = 'smearing'
  smearing = 'cold'
  nspin = 2
  starting_magnetization=0.0000000000
/
&ELECTRONS
  conv_thr =   1.0000000000d-8
/
ATOMIC_SPECIES
Zn     65.38 Zn.pbe-dnl-kjpaw_psl.1.0.0.UPF 
ATOMIC_POSITIONS crystal
Zn           0.3333333333       0.6666666667       0.2500000000 
Zn           0.6666666667       0.3333333333       0.7500000000 
K_POINTS automatic
14 14 7 0 0 0
HUBBARD ortho-atomic
U Zn-3d 7.0000