&CONTROL
  calculation = 'scf'
  outdir = './out/'
  prefix = 'Co_qp1' 
  pseudo_dir = '/arf/home/amuhaymin/pseudo/' 
  verbosity = 'high'
  disk_io = 'low'
/
&SYSTEM
  ecutwfc = 150
  ecutrho = 600
  ibrav = 1
  a = 10.88441000000
  nat = 63
  ntyp = 3
  occupations = 'smearing'
  smearing = 'gauss'
  degauss = 0.001
  nspin = 2
  starting_magnetization(3) = 0.23529411764705882352
  tot_charge = 1
/
&ELECTRONS
  conv_thr =   1d-08
/
ATOMIC_SPECIES
S      32.065 S.pbe-n-kjpaw_psl.1.0.0.UPF
Zn     65.38 Zn.pbe-dnl-kjpaw_psl.1.0.0.UPF
Co     63.546   Co.pbe-spn-kjpaw_psl.0.3.1.UPF
ATOMIC_POSITIONS (crystal)
Zn            0.0001122139        0.0001122139        0.0001122139
Zn            0.0001442332        0.2496628361        0.2496628361
Zn            0.2496628361        0.0001442332        0.2496628361
Zn            0.2496628361        0.2496628361        0.0001442332
S             0.1245559118        0.3745487425        0.3745487425
S             0.1246763743        0.1246763743        0.1246763743
S             0.3745487425        0.3745487425        0.1245559118
S             0.3745487425        0.1245559118        0.3745487425
Zn            0.0022835229        0.0022835229        0.4986853241
Zn            0.0023997065        0.2474620111        0.7499907522
Zn            0.2474620111        0.0023997065        0.7499907522
Zn            0.2524827251        0.2524827251        0.4995461322
S             0.1247680808        0.3746802378        0.8745649413
S             0.1257709975        0.1257709975        0.6235253558
S             0.3773777287        0.3773777287        0.6221812586
S             0.3746802378        0.1247680808        0.8745649413
Zn            0.0022835229        0.4986853241        0.0022835229
Zn            0.0023997065        0.7499907522        0.2474620111
Zn            0.2524827251        0.4995461322        0.2524827251
Zn            0.2474620111        0.7499907522        0.0023997065
S             0.1247680808        0.8745649413        0.3746802378
S             0.1257709975        0.6235253558        0.1257709975
S             0.3746802378        0.8745649413        0.1247680808
S             0.3773777287        0.6221812586        0.3773777287
Zn            0.0035780015        0.5002371118        0.5002371118
Zn            0.0032808053        0.7486777224        0.7486777224
Zn            0.2499037447        0.4961869078        0.7462466107
Zn            0.2499037447        0.7462466107        0.4961869078
S             0.1246284151        0.8746327896        0.8746327896
S             0.1259487313        0.6246984346        0.6246984346
S             0.3727046976        0.8764716136        0.6220580597
S             0.3727046976        0.6220580597        0.8764716136
Zn            0.4986853241        0.0022835229        0.0022835229
Zn            0.4995461322        0.2524827251        0.2524827251
Zn            0.7499907522        0.0023997065        0.2474620111
Zn            0.7499907522        0.2474620111        0.0023997065
S             0.6221812586        0.3773777287        0.3773777287
S             0.6235253558        0.1257709975        0.1257709975
S             0.8745649413        0.3746802378        0.1247680808
S             0.8745649413        0.1247680808        0.3746802378
Zn            0.5002371118        0.0035780015        0.5002371118
Zn            0.4961869078        0.2499037447        0.7462466107
Zn            0.7486777224        0.0032808053        0.7486777224
Zn            0.7462466107        0.2499037447        0.4961869078
S             0.6220580597        0.3727046976        0.8764716136
S             0.6246984346        0.1259487313        0.6246984346
S             0.8764716136        0.3727046976        0.6220580597
S             0.8746327896        0.1246284151        0.8746327896
Zn            0.5002371118        0.5002371118        0.0035780015
Zn            0.4961869078        0.7462466107        0.2499037447
Zn            0.7462466107        0.4961869078        0.2499037447
Zn            0.7486777224        0.7486777224        0.0032808053
S             0.6220580597        0.8764716136        0.3727046976
S             0.6246984346        0.6246984346        0.1259487313
S             0.8746327896        0.8746327896        0.1246284151
S             0.8764716136        0.6220580597        0.3727046976
Co            0.4853704368        0.4853704368        0.4853704368
Zn            0.4701193407        0.7774578864        0.7774578864
Zn            0.7774578864        0.4701193407        0.7774578864
Zn            0.7774578864        0.7774578864        0.4701193407
S             0.6265895052        0.8757611189        0.8757611189
S             0.8757611189        0.8757611189        0.6265895052
S             0.8757611189        0.6265895052        0.8757611189
K_POINTS automatic
4 4 4 0 0 0
