&DOS
    outdir  =  'out/'
    prefix  =  'Co_vac_qp1'
    fildos  =  'Co_vac_in_ZnS.qp1.dos'
    Emin = -15
    Emax = 15
/
