&PROJWFC
 prefix = "Co_vac_qp1"
 outdir = "./out/"
 filpdos = "Co_vac_in_ZnS.qp1"
 Emin = -15
 Emax = 15
/
