&PROJWFC
 prefix = "Cu_vac_qp1_U4_unrlxd"
 outdir = "./out/"
 filpdos = "Cu_vac_in_ZnS.qp1.unrlxd.U4"
 Emin = -15
 Emax = 15
/
