&CONTROL
  calculation = 'nscf'
  outdir = './out/'
  prefix = 'Cu_vac_qp1_unrlxd' 
  pseudo_dir = '/arf/home/amuhaymin/pseudo/' 
  verbosity = 'high'
  disk_io = 'low'
/
&SYSTEM
  ecutwfc = 150
  ecutrho = 600
  ibrav = 1
  a = 10.88441000000
  nat = 63
  ntyp = 3
  occupations = 'tetrahedra_opt'
  nspin = 2
  starting_magnetization(3) = 0.1052631578947368421
  tot_charge = 1
/
&ELECTRONS
  conv_thr =   1d-08
/
ATOMIC_SPECIES
S      32.065 S.pbe-n-kjpaw_psl.1.0.0.UPF
Zn     65.38 Zn.pbe-dnl-kjpaw_psl.1.0.0.UPF
Cu     63.546   Cu.pbe-spn-kjpaw_psl.1.0.0.UPF
ATOMIC_POSITIONS crystal
Zn           0.0000000000       0.0000000000       0.0000000000 
Zn           0.0000000000       0.2500000000       0.2500000000 
Zn           0.2500000000       0.0000000000       0.2500000000 
Zn           0.2500000000       0.2500000000       0.0000000000 
S            0.1250000000       0.3750000000       0.3750000000 
S            0.1250000000       0.1250000000       0.1250000000 
S            0.3750000000       0.3750000000       0.1250000000 
S            0.3750000000       0.1250000000       0.3750000000 
Zn           0.0000000000       0.0000000000       0.5000000000 
Zn           0.0000000000       0.2500000000       0.7500000000 
Zn           0.2500000000       0.0000000000       0.7500000000 
Zn           0.2500000000       0.2500000000       0.5000000000 
S            0.1250000000       0.3750000000       0.8750000000 
S            0.1250000000       0.1250000000       0.6250000000 
S            0.3750000000       0.3750000000       0.6250000000 
S            0.3750000000       0.1250000000       0.8750000000 
Zn           0.0000000000       0.5000000000       0.0000000000 
Zn           0.0000000000       0.7500000000       0.2500000000 
Zn           0.2500000000       0.5000000000       0.2500000000 
Zn           0.2500000000       0.7500000000       0.0000000000 
S            0.1250000000       0.8750000000       0.3750000000 
S            0.1250000000       0.6250000000       0.1250000000 
S            0.3750000000       0.8750000000       0.1250000000 
S            0.3750000000       0.6250000000       0.3750000000 
Zn           0.0000000000       0.5000000000       0.5000000000 
Zn           0.0000000000       0.7500000000       0.7500000000 
Zn           0.2500000000       0.5000000000       0.7500000000 
Zn           0.2500000000       0.7500000000       0.5000000000 
S            0.1250000000       0.8750000000       0.8750000000 
S            0.1250000000       0.6250000000       0.6250000000 
S            0.3750000000       0.8750000000       0.6250000000 
S            0.3750000000       0.6250000000       0.8750000000 
Zn           0.5000000000       0.0000000000       0.0000000000 
Zn           0.5000000000       0.2500000000       0.2500000000 
Zn           0.7500000000       0.0000000000       0.2500000000 
Zn           0.7500000000       0.2500000000       0.0000000000 
S            0.6250000000       0.3750000000       0.3750000000 
S            0.6250000000       0.1250000000       0.1250000000 
S            0.8750000000       0.3750000000       0.1250000000 
S            0.8750000000       0.1250000000       0.3750000000 
Zn           0.5000000000       0.0000000000       0.5000000000 
Zn           0.5000000000       0.2500000000       0.7500000000 
Zn           0.7500000000       0.0000000000       0.7500000000 
Zn           0.7500000000       0.2500000000       0.5000000000 
S            0.6250000000       0.3750000000       0.8750000000 
S            0.6250000000       0.1250000000       0.6250000000 
S            0.8750000000       0.3750000000       0.6250000000 
S            0.8750000000       0.1250000000       0.8750000000 
Zn           0.5000000000       0.5000000000       0.0000000000 
Zn           0.5000000000       0.7500000000       0.2500000000 
Zn           0.7500000000       0.5000000000       0.2500000000 
Zn           0.7500000000       0.7500000000       0.0000000000 
S            0.6250000000       0.8750000000       0.3750000000 
S            0.6250000000       0.6250000000       0.1250000000 
S            0.8750000000       0.8750000000       0.1250000000 
S            0.8750000000       0.6250000000       0.3750000000 
Cu           0.5000000000       0.5000000000       0.5000000000 
Zn           0.5000000000       0.7500000000       0.7500000000 
Zn           0.7500000000       0.5000000000       0.7500000000 
Zn           0.7500000000       0.7500000000       0.5000000000 
S            0.6250000000       0.8750000000       0.8750000000 !S            0.6250000000       0.6250000000       0.6250000000 
S            0.8750000000       0.8750000000       0.6250000000 
S            0.8750000000       0.6250000000       0.8750000000
K_POINTS automatic
4 4 4 0 0 0
