&PROJWFC
 prefix = "Co_qp1_unrlxd"
 outdir = "./out/"
 filpdos = "Co_in_ZnS.qp1.unrlxd"
 Emin = -15
 Emax = 15
/
