&CONTROL
  calculation = 'relax'
  outdir = './out/'
  prefix = 'Fe_qp1' 
  pseudo_dir = '/arf/home/amuhaymin/pseudo/' 
  verbosity = 'high'
  disk_io = 'none'
  etot_conv_thr = 1.0D-5
  forc_conv_thr = 1.0D-4
  tstress = .true.
  tprnfor = .true.
/
&SYSTEM
  ecutwfc = 150
  ecutrho = 600
  ibrav = 1
  a = 10.88441000000
  nat = 63
  ntyp = 3
  occupations = 'smearing'
  smearing = 'gauss'
  degauss = 0.001
  nspin = 2
  starting_magnetization(3) = 0.3125000000000000000000
  tot_charge = 1
/
&ELECTRONS
  conv_thr =   1d-08
/
&IONS
/
ATOMIC_SPECIES
S      32.065 S.pbe-n-kjpaw_psl.1.0.0.UPF
Zn     65.38 Zn.pbe-dnl-kjpaw_psl.1.0.0.UPF
Fe     63.546   Fe.pbe-spn-kjpaw_psl.1.0.0.UPF
ATOMIC_POSITIONS (crystal)
Zn            0.0002372585        0.0002372585        0.0002372585
Zn            0.0003353707        0.2498589433        0.2498589433
Zn            0.2498589433        0.0003353707        0.2498589433
Zn            0.2498589433        0.2498589433        0.0003353707
S             0.1247756534        0.3752963743        0.3752963743
S             0.1249867233        0.1249867233        0.1249867233
S             0.3752963743        0.3752963743        0.1247756534
S             0.3752963743        0.1247756534        0.3752963743
Zn           -0.0003007333       -0.0003007333        0.4994360635
Zn           -0.0002340521        0.2502895211        0.7504822103
Zn            0.2502895211       -0.0002340521        0.7504822103
Zn            0.2507399286        0.2507399286        0.4995713948
S             0.1251418046        0.3752405916        0.8746500339
S             0.1250257263        0.1250257263        0.6249975874
S             0.3785193765        0.3785193765        0.6252554147
S             0.3752405916        0.1251418046        0.8746500339
Zn           -0.0003007333        0.4994360635       -0.0003007333
Zn           -0.0002340521        0.7504822103        0.2502895211
Zn            0.2507399286        0.4995713948        0.2507399286
Zn            0.2502895211        0.7504822103       -0.0002340521
S             0.1251418046        0.8746500339        0.3752405916
S             0.1250257263        0.6249975874        0.1250257263
S             0.3752405916        0.8746500339        0.1251418046
S             0.3785193765        0.6252554147        0.3785193765
Zn            0.0015242851        0.5003031920        0.5003031920
Zn            0.0015149354        0.7496204617        0.7496204617
Zn            0.2489071787        0.4999046138        0.7491867460
Zn            0.2489071787        0.7491867460        0.4999046138
S             0.1249017639        0.8747076388        0.8747076388
S             0.1249834876        0.6249727495        0.6249727495
S             0.3767976828        0.8732543420        0.6231264359
S             0.3767976828        0.6231264359        0.8732543420
Zn            0.4994360635       -0.0003007333       -0.0003007333
Zn            0.4995713948        0.2507399286        0.2507399286
Zn            0.7504822103       -0.0002340521        0.2502895211
Zn            0.7504822103        0.2502895211       -0.0002340521
S             0.6252554147        0.3785193765        0.3785193765
S             0.6249975874        0.1250257263        0.1250257263
S             0.8746500339        0.3752405916        0.1251418046
S             0.8746500339        0.1251418046        0.3752405916
Zn            0.5003031920        0.0015242851        0.5003031920
Zn            0.4999046138        0.2489071787        0.7491867460
Zn            0.7496204617        0.0015149354        0.7496204617
Zn            0.7491867460        0.2489071787        0.4999046138
S             0.6231264359        0.3767976828        0.8732543420
S             0.6249727495        0.1249834876        0.6249727495
S             0.8732543420        0.3767976828        0.6231264359
S             0.8747076388        0.1249017639        0.8747076388
Zn            0.5003031920        0.5003031920        0.0015242851
Zn            0.4999046138        0.7491867460        0.2489071787
Zn            0.7491867460        0.4999046138        0.2489071787
Zn            0.7496204617        0.7496204617        0.0015149354
S             0.6231264359        0.8732543420        0.3767976828
S             0.6249727495        0.6249727495        0.1249834876
S             0.8747076388        0.8747076388        0.1249017639
S             0.8732543420        0.6231264359        0.3767976828
Fe            0.4933365885        0.4933365885        0.4933365885
Zn            0.4915394522        0.7573091616        0.7573091616
Zn            0.7573091616        0.4915394522        0.7573091616
Zn            0.7573091616        0.7573091616        0.4915394522
S             0.6266498829        0.8726771412        0.8726771412
S             0.8726771412        0.8726771412        0.6266498829
S             0.8726771412        0.6266498829        0.8726771412
K_POINTS automatic
4 4 4 0 0 0
