&CONTROL
  calculation = 'scf'
  outdir = './out/'
  prefix = 'Fe_vac_qp1' 
  pseudo_dir = '/arf/home/amuhaymin/pseudo/' 
  verbosity = 'high'
  disk_io = 'low'
/
&SYSTEM
  ecutwfc = 150
  ecutrho = 600
  ibrav = 1
  a = 10.88441000000
  nat = 63
  ntyp = 3
  occupations = 'smearing'
  smearing = 'gauss'
  degauss = 0.001
  nspin = 2
  starting_magnetization(3) = 0.3125000000000000000000
  tot_charge = 1
/
&ELECTRONS
  conv_thr =   1d-08
/
ATOMIC_SPECIES
S      32.065 S.pbe-n-kjpaw_psl.1.0.0.UPF
Zn     65.38 Zn.pbe-dnl-kjpaw_psl.1.0.0.UPF
Fe     63.546   Fe.pbe-spn-kjpaw_psl.1.0.0.UPF
ATOMIC_POSITIONS crystal
Zn            0.0000898391        0.0000898391        0.0000898391
Zn            0.0006353815        0.2497165743        0.2497165743
Zn            0.2497165743        0.0006353815        0.2497165743
Zn            0.2497165743        0.2497165743        0.0006353815
S             0.1248847344        0.3747466780        0.3747466780
S             0.1246826752        0.1246826752        0.1246826752
S             0.3747466780        0.3747466780        0.1248847344
S             0.3747466780        0.1248847344        0.3747466780
Zn            0.0020918363        0.0020918363        0.4990234722
Zn            0.0024298835        0.2473851863        0.7503523218
Zn            0.2473851863        0.0024298835        0.7503523218
Zn            0.2524589915        0.2524589915        0.4996728648
S             0.1243440309        0.3744313303        0.8753886066
S             0.1257471249        0.1257471249        0.6236746563
S             0.3754983236        0.3754983236        0.6271439959
S             0.3744313303        0.1243440309        0.8753886066
Zn            0.0020918363        0.4990234722        0.0020918363
Zn            0.0024298835        0.7503523218        0.2473851863
Zn            0.2524589915        0.4996728648        0.2524589915
Zn            0.2473851863        0.7503523218        0.0024298835
S             0.1243440309        0.8753886066        0.3744313303
S             0.1257471249        0.6236746563        0.1257471249
S             0.3744313303        0.8753886066        0.1243440309
S             0.3754983236        0.6271439959        0.3754983236
Zn            0.0035115975        0.5002250734        0.5002250734
Zn            0.0026513603        0.7488794777        0.7488794777
Zn            0.2483019140        0.4975313194        0.7486282218
Zn            0.2483019140        0.7486282218        0.4975313194
S             0.1244341647        0.8746257804        0.8746257804
S             0.1257870928        0.6249009279        0.6249009279
S             0.3727769935        0.8769238899        0.6224056122
S             0.3727769935        0.6224056122        0.8769238899
Zn            0.4990234722        0.0020918363        0.0020918363
Zn            0.4996728648        0.2524589915        0.2524589915
Zn            0.7503523218        0.0024298835        0.2473851863
Zn            0.7503523218        0.2473851863        0.0024298835
S             0.6271439959        0.3754983236        0.3754983236
S             0.6236746563        0.1257471249        0.1257471249
S             0.8753886066        0.3744313303        0.1243440309
S             0.8753886066        0.1243440309        0.3744313303
Zn            0.5002250734        0.0035115975        0.5002250734
Zn            0.4975313194        0.2483019140        0.7486282218
Zn            0.7488794777        0.0026513603        0.7488794777
Zn            0.7486282218        0.2483019140        0.4975313194
S             0.6224056122        0.3727769935        0.8769238899
S             0.6249009279        0.1257870928        0.6249009279
S             0.8769238899        0.3727769935        0.6224056122
S             0.8746257804        0.1244341647        0.8746257804
Zn            0.5002250734        0.5002250734        0.0035115975
Zn            0.4975313194        0.7486282218        0.2483019140
Zn            0.7486282218        0.4975313194        0.2483019140
Zn            0.7488794777        0.7488794777        0.0026513603
S             0.6224056122        0.8769238899        0.3727769935
S             0.6249009279        0.6249009279        0.1257870928
S             0.8746257804        0.8746257804        0.1244341647
S             0.8769238899        0.6224056122        0.3727769935
Fe            0.4796475089        0.4796475089        0.4796475089
Zn            0.4720819899        0.7751000461        0.7751000461
Zn            0.7751000461        0.4720819899        0.7751000461
Zn            0.7751000461        0.7751000461        0.4720819899
S             0.6263826811        0.8754578486        0.8754578486
S             0.8754578486        0.8754578486        0.6263826811
S             0.8754578486        0.6263826811        0.8754578486
K_POINTS automatic
4 4 4 0 0 0
