&PROJWFC
 prefix = "Fe_vac_qp1"
 outdir = "./out/"
 filpdos = "Fe_vac_in_ZnS.qp1"
 Emin = -15
 Emax = 15
/
