&PROJWFC
 prefix = "ZnS_hub"
 outdir = "./out/"
 filpdos = "ZnS_hub"
 Emin = -4
 Emax = 12
/
