&PROJWFC
 prefix = "Co_vac_q0_unrlxd"
 outdir = "./out/"
 filpdos = "Co_vac_in_ZnS.q0.unrlxd"
 Emin = -15
 Emax = 15
/
