&PROJWFC
 prefix = "Co_vac_qn1_unrlxd"
 outdir = "./out/"
 filpdos = "Co_vac_in_ZnS.qn1.unrlxd"
 Emin = -15
 Emax = 15
/
