 &CONTROL
   calculation     =  'scf'
   outdir          =  './out/'
   prefix          =  'Zn'
   pseudo_dir      =  '/home/abdul/git_repo/ZnS_Cu-Vacancy/pseudo/QE'
   verbosity       =  'high'
 /

 &SYSTEM
   degauss         =  0.001
   ecutrho         =  280
   ecutwfc         =  70
   ibrav           =  0
   nat             =  2
   ntyp            =  1
   occupations     =  'smearing'
   smearing        =  'gauss'
 /

 &ELECTRONS
   conv_thr        =  4e-8
   startingpot     =  'file'
   startingwfc     =  'file'
 /

ATOMIC_SPECIES 
  Zn    65.38   Zn.pbe-dnl-kjpaw_psl.1.0.0.UPF 


CELL_PARAMETERS angstrom
    2.6143597999999999   0.0000000000000000   0.0000000000000000
   -1.3071799000000000   2.2641020014000000   0.0000000000000000
    0.0000000000000000   0.0000000000000000   4.8731610200000004

ATOMIC_POSITIONS crystal
  Zn       0.333333330000   0.666666670000   0.250000000000
  Zn       0.666666670000   0.333333330000   0.750000000000

K_POINTS automatic
  14   14   7   0   0   0 



