&CONTROL
  calculation = 'scf'
  outdir = './out/'
  prefix = 'Cu_ZnS' 
  pseudo_dir = '/arf/home/amuhaymin/pseudo/' 
  verbosity = 'high'
/
&SYSTEM
  ecutwfc = 170
  ecutrho = 600
  ibrav = 1
  a = 10.884400000
  nat = 64
  ntyp = 3
  occupations = 'smearing'
  smearing = 'gauss'
  degauss = 0.001
  nspin = 2
  nbnd = 350
  starting_magnetization(3) = 0.00001
/
&ELECTRONS
  conv_thr =   1d-10
/
ATOMIC_SPECIES
S      32.065 S.pbe-n-kjpaw_psl.1.0.0.UPF
Zn     65.38 Zn.pbe-dnl-kjpaw_psl.1.0.0.UPF
Cu     63.546   Cu.pbe-spn-kjpaw_psl.1.0.0.UPF 
ATOMIC_POSITIONS (crystal)
Zn            0.0000000000       -0.0000000000        0.0000000000
Zn            0.0000937758        0.2502128841        0.2502128841
Zn            0.2502128841        0.0000937758        0.2502128841
Zn            0.2502128841        0.2502128841        0.0000937758
S             0.1252922271        0.3751010557        0.3751010557
S             0.1250349636        0.1250349636        0.1250349636
S             0.3751010557        0.3751010557        0.1252922271
S             0.3751010557        0.1252922271        0.3751010557
Zn            0.0000000000        0.0000000000        0.5000000000
Zn           -0.0000937758        0.2502128841        0.7497871159
Zn            0.2502128841       -0.0000937758        0.7497871159
Zn            0.2513432854        0.2513432854        0.5008895577
S             0.1251835718        0.3750823546        0.8748164282
S             0.1251835718        0.1251835718        0.6249176454
S             0.3769432840        0.3769432840        0.6230567160
S             0.3750823546        0.1251835718        0.8748164282
Zn            0.0000000000        0.5000000000        0.0000000000
Zn           -0.0000937758        0.7497871159        0.2502128841
Zn            0.2513432854        0.5008895577        0.2513432854
Zn            0.2502128841        0.7497871159       -0.0000937758
S             0.1251835718        0.8748164282        0.3750823546
S             0.1251835718        0.6249176454        0.1251835718
S             0.3750823546        0.8748164282        0.1251835718
S             0.3769432840        0.6230567160        0.3769432840
Zn            0.0000000000        0.5000000000        0.5000000000
Zn            0.0000937758        0.7497871159        0.7497871159
Zn            0.2513432854        0.4991104423        0.7486567146
Zn            0.2513432854        0.7486567146        0.4991104423
S             0.1250349636        0.8749650364        0.8749650364
S             0.1252922271        0.6248989443        0.6248989443
S             0.3751010557        0.8747077729        0.6248989443
S             0.3751010557        0.6248989443        0.8747077729
Zn            0.5000000000        0.0000000000        0.0000000000
Zn            0.5008895577        0.2513432854        0.2513432854
Zn            0.7497871159       -0.0000937758        0.2502128841
Zn            0.7497871159        0.2502128841       -0.0000937758
S             0.6230567160        0.3769432840        0.3769432840
S             0.6249176454        0.1251835718        0.1251835718
S             0.8748164282        0.3750823546        0.1251835718
S             0.8748164282        0.1251835718        0.3750823546
Zn            0.5000000000       -0.0000000000        0.5000000000
Zn            0.4991104423        0.2513432854        0.7486567146
Zn            0.7497871159        0.0000937758        0.7497871159
Zn            0.7486567146        0.2513432854        0.4991104423
S             0.6248989443        0.3751010557        0.8747077729
S             0.6248989443        0.1252922271        0.6248989443
S             0.8747077729        0.3751010557        0.6248989443
S             0.8749650364        0.1250349636        0.8749650364
Zn            0.5000000000        0.5000000000        0.0000000000
Zn            0.4991104423        0.7486567146        0.2513432854
Zn            0.7486567146        0.4991104423        0.2513432854
Zn            0.7497871159        0.7497871159        0.0000937758
S             0.6248989443        0.8747077729        0.3751010557
S             0.6248989443        0.6248989443        0.1252922271
S             0.8749650364        0.8749650364        0.1250349636
S             0.8747077729        0.6248989443        0.3751010557
Cu            0.5000000000        0.5000000000        0.5000000000
Zn            0.5008895577        0.7486567146        0.7486567146
Zn            0.7486567146        0.5008895577        0.7486567146
Zn            0.7486567146        0.7486567146        0.5008895577
S             0.6249176454        0.8748164282        0.8748164282
S             0.6230567160        0.6230567160        0.6230567160
S             0.8748164282        0.8748164282        0.6249176454
S             0.8748164282        0.6249176454        0.8748164282
K_POINTS automatic
4 4 4 0 0 0
