&CONTROL
  calculation = 'nscf'
  outdir = './out/'
  prefix = 'Fe_qp1' 
  pseudo_dir = '/arf/home/amuhaymin/pseudo/' 
  verbosity = 'high'
  disk_io = 'low'
/
&SYSTEM
  ecutwfc = 150
  ecutrho = 600
  ibrav = 1
  a = 10.88441000000
  nat = 64
  ntyp = 3
  occupations = 'tetrahedra_opt'
  nspin = 2
  starting_magnetization(3) = 0.3125000000000000000
  tot_charge = 1
/
&ELECTRONS
  conv_thr =   1d-08
/
ATOMIC_SPECIES
S      32.065 S.pbe-n-kjpaw_psl.1.0.0.UPF
Zn     65.38 Zn.pbe-dnl-kjpaw_psl.1.0.0.UPF
Fe     63.546   Fe.pbe-spn-kjpaw_psl.1.0.0.UPF
ATOMIC_POSITIONS crystal
Zn            0.0000000000       -0.0000000000        0.0000000000
Zn            0.0000456903        0.2496912690        0.2496912690
Zn            0.2496912690        0.0000456903        0.2496912690
Zn            0.2496912690        0.2496912690        0.0000456903
S             0.1248460109        0.3752236048        0.3752236048
S             0.1250286344        0.1250286344        0.1250286344
S             0.3752236048        0.3752236048        0.1248460109
S             0.3752236048        0.1248460109        0.3752236048
Zn            0.0000000000       -0.0000000000        0.5000000000
Zn           -0.0000456903        0.2496912690        0.7503087310
Zn            0.2496912690       -0.0000456903        0.7503087310
Zn            0.2485429822        0.2485429822        0.4978289672
S             0.1254709517        0.3749913627        0.8745290483
S             0.1254709517        0.1254709517        0.6250086373
S             0.3779085939        0.3779085939        0.6220914061
S             0.3749913627        0.1254709517        0.8745290483
Zn            0.0000000000        0.5000000000        0.0000000000
Zn           -0.0000456903        0.7503087310        0.2496912690
Zn            0.2485429822        0.4978289672        0.2485429822
Zn            0.2496912690        0.7503087310       -0.0000456903
S             0.1254709517        0.8745290483        0.3749913627
S             0.1254709517        0.6250086373        0.1254709517
S             0.3749913627        0.8745290483        0.1254709517
S             0.3779085939        0.6220914061        0.3779085939
Zn            0.0000000000        0.5000000000        0.5000000000
Zn            0.0000456903        0.7503087310        0.7503087310
Zn            0.2485429822        0.5021710328        0.7514570178
Zn            0.2485429822        0.7514570178        0.5021710328
S             0.1250286344        0.8749713656        0.8749713656
S             0.1248460109        0.6247763952        0.6247763952
S             0.3752236048        0.8751539891        0.6247763952
S             0.3752236048        0.6247763952        0.8751539891
Zn            0.5000000000        0.0000000000        0.0000000000
Zn            0.4978289672        0.2485429822        0.2485429822
Zn            0.7503087310       -0.0000456903        0.2496912690
Zn            0.7503087310        0.2496912690       -0.0000456903
S             0.6220914061        0.3779085939        0.3779085939
S             0.6250086373        0.1254709517        0.1254709517
S             0.8745290483        0.3749913627        0.1254709517
S             0.8745290483        0.1254709517        0.3749913627
Zn            0.5000000000        0.0000000000        0.5000000000
Zn            0.5021710328        0.2485429822        0.7514570178
Zn            0.7503087310        0.0000456903        0.7503087310
Zn            0.7514570178        0.2485429822        0.5021710328
S             0.6247763952        0.3752236048        0.8751539891
S             0.6247763952        0.1248460109        0.6247763952
S             0.8751539891        0.3752236048        0.6247763952
S             0.8749713656        0.1250286344        0.8749713656
Zn            0.5000000000        0.5000000000        0.0000000000
Zn            0.5021710328        0.7514570178        0.2485429822
Zn            0.7514570178        0.5021710328        0.2485429822
Zn            0.7503087310        0.7503087310        0.0000456903
S             0.6247763952        0.8751539891        0.3752236048
S             0.6247763952        0.6247763952        0.1248460109
S             0.8749713656        0.8749713656        0.1250286344
S             0.8751539891        0.6247763952        0.3752236048
Fe            0.5000000000        0.5000000000        0.5000000000
Zn            0.4978289672        0.7514570178        0.7514570178
Zn            0.7514570178        0.4978289672        0.7514570178
Zn            0.7514570178        0.7514570178        0.4978289672
S             0.6250086373        0.8745290483        0.8745290483
S             0.6220914061        0.6220914061        0.6220914061
S             0.8745290483        0.8745290483        0.6250086373
S             0.8745290483        0.6250086373        0.8745290483
K_POINTS automatic
4 4 4 0 0 0
