&DOS
    outdir  =  'out/'
    prefix  =  'Fe_qp1'
    fildos  =  '5.Fe_in_ZnS.qp1.dos'
    Emin = -15
    Emax = 15
/
