&PROJWFC
 prefix = "Cu_vac_q0_U8_unrlxd"
 outdir = "./out/"
 filpdos = "Cu_vac_in_ZnS.q0.unrlxd.U8"
 Emin = -15
 Emax = 15
/
