&DOS
    outdir  =  'out/'
    prefix  =  'Ni_qp1_unrlxd'
    fildos  =  '5.Ni_in_ZnS.qp1.unrlxd.dos'
    Emin = -15
    Emax = 15
/
