&PROJWFC
 prefix = "Ni_qp1_unrlxd"
 outdir = "./out/"
 filpdos = "Ni_in_ZnS.qp1.unrlxd"
 Emin = -15
 Emax = 15
/
