&CONTROL
  calculation = 'bands'
  outdir = './out/'
  prefix = 'ZnS'
  pseudo_dir = '/home/abdul/git_repo/ZnS/pseudo/QE/'
  verbosity = 'high'
/
&SYSTEM
  degauss =  0.001
  ecutrho =  400
  ecutwfc =  100
  ibrav = 0
  nat = 2
  nspin = 2
  ntyp = 2
  occupations = 'smearing'
  smearing = 'gauss'
  starting_magnetization(1) = 0.000000000000000
  starting_magnetization(2) = 0.000000000000000

/
&ELECTRONS
  conv_thr =   1d-8
  mixing_beta =   4.d-01
/
ATOMIC_SPECIES
S      32.065 S.pbe-n-kjpaw_psl.1.0.0.UPF
Zn     65.38 Zn.pbe-dnl-kjpaw_psl.1.0.0.UPF
ATOMIC_POSITIONS angstrom
Zn       0.0000000000     0.0000000000     0.0000000000
S        1.3605512500     1.3605512500     4.0816537500
K_POINTS crystal
200
    0.0000000000     0.0000000000     0.0000000000 1
    0.0111111111     0.0000000000     0.0111111111 1
    0.0222222222     0.0000000000     0.0222222222 1
    0.0333333333     0.0000000000     0.0333333333 1
    0.0444444444     0.0000000000     0.0444444444 1
    0.0555555556     0.0000000000     0.0555555556 1
    0.0666666667     0.0000000000     0.0666666667 1
    0.0777777778     0.0000000000     0.0777777778 1
    0.0888888889     0.0000000000     0.0888888889 1
    0.1000000000     0.0000000000     0.1000000000 1
    0.1111111111     0.0000000000     0.1111111111 1
    0.1222222222     0.0000000000     0.1222222222 1
    0.1333333333     0.0000000000     0.1333333333 1
    0.1444444444     0.0000000000     0.1444444444 1
    0.1555555556     0.0000000000     0.1555555556 1
    0.1666666667     0.0000000000     0.1666666667 1
    0.1777777778     0.0000000000     0.1777777778 1
    0.1888888889     0.0000000000     0.1888888889 1
    0.2000000000     0.0000000000     0.2000000000 1
    0.2111111111     0.0000000000     0.2111111111 1
    0.2222222222     0.0000000000     0.2222222222 1
    0.2333333333     0.0000000000     0.2333333333 1
    0.2444444444     0.0000000000     0.2444444444 1
    0.2555555556     0.0000000000     0.2555555556 1
    0.2666666667     0.0000000000     0.2666666667 1
    0.2777777778     0.0000000000     0.2777777778 1
    0.2888888889     0.0000000000     0.2888888889 1
    0.3000000000     0.0000000000     0.3000000000 1
    0.3111111111     0.0000000000     0.3111111111 1
    0.3222222222     0.0000000000     0.3222222222 1
    0.3333333333     0.0000000000     0.3333333333 1
    0.3444444444     0.0000000000     0.3444444444 1
    0.3555555556     0.0000000000     0.3555555556 1
    0.3666666667     0.0000000000     0.3666666667 1
    0.3777777778     0.0000000000     0.3777777778 1
    0.3888888889     0.0000000000     0.3888888889 1
    0.4000000000     0.0000000000     0.4000000000 1
    0.4111111111     0.0000000000     0.4111111111 1
    0.4222222222     0.0000000000     0.4222222222 1
    0.4333333333     0.0000000000     0.4333333333 1
    0.4444444444     0.0000000000     0.4444444444 1
    0.4555555556     0.0000000000     0.4555555556 1
    0.4666666667     0.0000000000     0.4666666667 1
    0.4777777778     0.0000000000     0.4777777778 1
    0.4888888889     0.0000000000     0.4888888889 1
    0.5000000000     0.0000000000     0.5000000000 1
    0.5083333333     0.0166666667     0.5083333333 1
    0.5166666667     0.0333333333     0.5166666667 1
    0.5250000000     0.0500000000     0.5250000000 1
    0.5333333333     0.0666666667     0.5333333333 1
    0.5416666667     0.0833333333     0.5416666667 1
    0.5500000000     0.1000000000     0.5500000000 1
    0.5583333333     0.1166666667     0.5583333333 1
    0.5666666667     0.1333333333     0.5666666667 1
    0.5750000000     0.1500000000     0.5750000000 1
    0.5833333333     0.1666666667     0.5833333333 1
    0.5916666667     0.1833333333     0.5916666667 1
    0.6000000000     0.2000000000     0.6000000000 1
    0.6083333333     0.2166666667     0.6083333333 1
    0.6166666667     0.2333333333     0.6166666667 1
    0.6250000000     0.2500000000     0.6250000000 1
    0.3750000000     0.3750000000     0.7500000000 1
    0.3670212766     0.3670212766     0.7340425532 1
    0.3590425532     0.3590425532     0.7180851064 1
    0.3510638298     0.3510638298     0.7021276596 1
    0.3430851064     0.3430851064     0.6861702128 1
    0.3351063830     0.3351063830     0.6702127660 1
    0.3271276596     0.3271276596     0.6542553191 1
    0.3191489362     0.3191489362     0.6382978723 1
    0.3111702128     0.3111702128     0.6223404255 1
    0.3031914894     0.3031914894     0.6063829787 1
    0.2952127660     0.2952127660     0.5904255319 1
    0.2872340426     0.2872340426     0.5744680851 1
    0.2792553191     0.2792553191     0.5585106383 1
    0.2712765957     0.2712765957     0.5425531915 1
    0.2632978723     0.2632978723     0.5265957447 1
    0.2553191489     0.2553191489     0.5106382979 1
    0.2473404255     0.2473404255     0.4946808511 1
    0.2393617021     0.2393617021     0.4787234043 1
    0.2313829787     0.2313829787     0.4627659574 1
    0.2234042553     0.2234042553     0.4468085106 1
    0.2154255319     0.2154255319     0.4308510638 1
    0.2074468085     0.2074468085     0.4148936170 1
    0.1994680851     0.1994680851     0.3989361702 1
    0.1914893617     0.1914893617     0.3829787234 1
    0.1835106383     0.1835106383     0.3670212766 1
    0.1755319149     0.1755319149     0.3510638298 1
    0.1675531915     0.1675531915     0.3351063830 1
    0.1595744681     0.1595744681     0.3191489362 1
    0.1515957447     0.1515957447     0.3031914894 1
    0.1436170213     0.1436170213     0.2872340426 1
    0.1356382979     0.1356382979     0.2712765957 1
    0.1276595745     0.1276595745     0.2553191489 1
    0.1196808511     0.1196808511     0.2393617021 1
    0.1117021277     0.1117021277     0.2234042553 1
    0.1037234043     0.1037234043     0.2074468085 1
    0.0957446809     0.0957446809     0.1914893617 1
    0.0877659574     0.0877659574     0.1755319149 1
    0.0797872340     0.0797872340     0.1595744681 1
    0.0718085106     0.0718085106     0.1436170213 1
    0.0638297872     0.0638297872     0.1276595745 1
    0.0558510638     0.0558510638     0.1117021277 1
    0.0478723404     0.0478723404     0.0957446809 1
    0.0398936170     0.0398936170     0.0797872340 1
    0.0319148936     0.0319148936     0.0638297872 1
    0.0239361702     0.0239361702     0.0478723404 1
    0.0159574468     0.0159574468     0.0319148936 1
    0.0079787234     0.0079787234     0.0159574468 1
    0.0000000000     0.0000000000     0.0000000000 1
    0.0131578947     0.0131578947     0.0131578947 1
    0.0263157895     0.0263157895     0.0263157895 1
    0.0394736842     0.0394736842     0.0394736842 1
    0.0526315789     0.0526315789     0.0526315789 1
    0.0657894737     0.0657894737     0.0657894737 1
    0.0789473684     0.0789473684     0.0789473684 1
    0.0921052632     0.0921052632     0.0921052632 1
    0.1052631579     0.1052631579     0.1052631579 1
    0.1184210526     0.1184210526     0.1184210526 1
    0.1315789474     0.1315789474     0.1315789474 1
    0.1447368421     0.1447368421     0.1447368421 1
    0.1578947368     0.1578947368     0.1578947368 1
    0.1710526316     0.1710526316     0.1710526316 1
    0.1842105263     0.1842105263     0.1842105263 1
    0.1973684211     0.1973684211     0.1973684211 1
    0.2105263158     0.2105263158     0.2105263158 1
    0.2236842105     0.2236842105     0.2236842105 1
    0.2368421053     0.2368421053     0.2368421053 1
    0.2500000000     0.2500000000     0.2500000000 1
    0.2631578947     0.2631578947     0.2631578947 1
    0.2763157895     0.2763157895     0.2763157895 1
    0.2894736842     0.2894736842     0.2894736842 1
    0.3026315789     0.3026315789     0.3026315789 1
    0.3157894737     0.3157894737     0.3157894737 1
    0.3289473684     0.3289473684     0.3289473684 1
    0.3421052632     0.3421052632     0.3421052632 1
    0.3552631579     0.3552631579     0.3552631579 1
    0.3684210526     0.3684210526     0.3684210526 1
    0.3815789474     0.3815789474     0.3815789474 1
    0.3947368421     0.3947368421     0.3947368421 1
    0.4078947368     0.4078947368     0.4078947368 1
    0.4210526316     0.4210526316     0.4210526316 1
    0.4342105263     0.4342105263     0.4342105263 1
    0.4473684211     0.4473684211     0.4473684211 1
    0.4605263158     0.4605263158     0.4605263158 1
    0.4736842105     0.4736842105     0.4736842105 1
    0.4868421053     0.4868421053     0.4868421053 1
    0.5000000000     0.5000000000     0.5000000000 1
    0.5000000000     0.4919354839     0.5080645161 1
    0.5000000000     0.4838709677     0.5161290323 1
    0.5000000000     0.4758064516     0.5241935484 1
    0.5000000000     0.4677419355     0.5322580645 1
    0.5000000000     0.4596774194     0.5403225806 1
    0.5000000000     0.4516129032     0.5483870968 1
    0.5000000000     0.4435483871     0.5564516129 1
    0.5000000000     0.4354838710     0.5645161290 1
    0.5000000000     0.4274193548     0.5725806452 1
    0.5000000000     0.4193548387     0.5806451613 1
    0.5000000000     0.4112903226     0.5887096774 1
    0.5000000000     0.4032258065     0.5967741935 1
    0.5000000000     0.3951612903     0.6048387097 1
    0.5000000000     0.3870967742     0.6129032258 1
    0.5000000000     0.3790322581     0.6209677419 1
    0.5000000000     0.3709677419     0.6290322581 1
    0.5000000000     0.3629032258     0.6370967742 1
    0.5000000000     0.3548387097     0.6451612903 1
    0.5000000000     0.3467741935     0.6532258065 1
    0.5000000000     0.3387096774     0.6612903226 1
    0.5000000000     0.3306451613     0.6693548387 1
    0.5000000000     0.3225806452     0.6774193548 1
    0.5000000000     0.3145161290     0.6854838710 1
    0.5000000000     0.3064516129     0.6935483871 1
    0.5000000000     0.2983870968     0.7016129032 1
    0.5000000000     0.2903225806     0.7096774194 1
    0.5000000000     0.2822580645     0.7177419355 1
    0.5000000000     0.2741935484     0.7258064516 1
    0.5000000000     0.2661290323     0.7338709677 1
    0.5000000000     0.2580645161     0.7419354839 1
    0.5000000000     0.2500000000     0.7500000000 1
    0.5000000000     0.2386363636     0.7386363636 1
    0.5000000000     0.2272727273     0.7272727273 1
    0.5000000000     0.2159090909     0.7159090909 1
    0.5000000000     0.2045454545     0.7045454545 1
    0.5000000000     0.1931818182     0.6931818182 1
    0.5000000000     0.1818181818     0.6818181818 1
    0.5000000000     0.1704545455     0.6704545455 1
    0.5000000000     0.1590909091     0.6590909091 1
    0.5000000000     0.1477272727     0.6477272727 1
    0.5000000000     0.1363636364     0.6363636364 1
    0.5000000000     0.1250000000     0.6250000000 1
    0.5000000000     0.1136363636     0.6136363636 1
    0.5000000000     0.1022727273     0.6022727273 1
    0.5000000000     0.0909090909     0.5909090909 1
    0.5000000000     0.0795454545     0.5795454545 1
    0.5000000000     0.0681818182     0.5681818182 1
    0.5000000000     0.0568181818     0.5568181818 1
    0.5000000000     0.0454545455     0.5454545455 1
    0.5000000000     0.0340909091     0.5340909091 1
    0.5000000000     0.0227272727     0.5227272727 1
    0.5000000000     0.0113636364     0.5113636364 1
    0.5000000000     0.0000000000     0.5000000000 1
CELL_PARAMETERS angstrom
    0.0000000000     2.7211025000     2.7211025000
    2.7211025000     0.0000000000     2.7211025000
    2.7211025000     2.7211025000     0.0000000000
