&BANDS
prefix = 'ZnS'
outdir = './out/'
filband = 'ZnS.bands_up'
lsym = .true.
spin_component = 1
/
