&BANDS
prefix = 'ZnS'
outdir = './out/'
filband = 'ZnS.bands_dw'
lsym = .true.
spin_component = 2
/
