&CONTROL
  calculation = 'scf'
  outdir = './out/'
  prefix = 'Zn'
  pseudo_dir      =  '/truba/home/amuhaymin/ZnS/pseudo/QE/'
  verbosity       =  'high'
 /

&SYSTEM
  degauss =   5d-04
  ecutwfc =   70
  ecutrho = 280
  ibrav = 4
  celldm(1) = 5.10
  celldm(3) = 1.83
  nat = 2
  ntyp = 1
  occupations = 'smearing'
  smearing = 'cold'
  nspin = 2
  starting_magnetization=0.0000001
/
&ELECTRONS
  conv_thr =   4.0000000000d-6
  startingpot= 'file'
  startingwfc= 'file'
/
ATOMIC_SPECIES
Zn     65.38 Zn.pbe-dnl-kjpaw_psl.1.0.0.UPF 
K_POINTS automatic
14 14 7 0 0 0
ATOMIC_POSITIONS crystal
  Zn       0.333333330000   0.666666670000   0.250000000000
  Zn       0.666666670000   0.333333330000   0.750000000000
