 &CONTROL
   calculation     =  'scf'
   outdir          =  './out/'
   prefix          =  'Co'
   pseudo_dir      =  '/home/abdul/git_repo/ZnS/pseudo/QE'
   verbosity       =  'high'
 /

 &SYSTEM
   degauss         =  0.073498618
   ecutrho         =  450
   ecutwfc         =  110
   ibrav           =  0
   nat             =  2
   nspin           =  2
   ntyp            =  1
   occupations     =  'smearing'
   smearing        =  'gauss'
   starting_magnetization(1) =  0.29411764706
 /

 &ELECTRONS
   conv_thr        =  8e-8
   electron_maxstep =  80
   mixing_beta     =  0.4
   startingpot     =  'file'
   startingwfc     =  'file'
 /

ATOMIC_SPECIES 
  Co    58.933   Co.pbe-spn-kjpaw_psl.0.3.1.UPF 


CELL_PARAMETERS angstrom
    2.4719999000000001   0.0000000000000000   0.0000000000000000
   -1.2359999500000001   2.1408147116000000   0.0000000000000000
    0.0000000000000000   0.0000000000000000   4.0211440800000000

ATOMIC_POSITIONS crystal
  Co       0.333333330000   0.666666670000   0.250000000000
  Co       0.666666670000   0.333333330000   0.750000000000

K_POINTS automatic
  16   16    8   0   0   0 



