 &CONTROL
   calculation = 'scf'
   outdir          =  './out/'
   prefix          =  'S'
   pseudo_dir      =  '/home/abdul/git_repo/ZnS_Cu-Vacancy/pseudo/QE'
   verbosity       =  'high'
 /

 &SYSTEM
   celldm(1)       =  24.56643962
   ecutrho         =  220
   ecutwfc         =  55
   ibrav           =  0
   nat             =  2
   ntyp            =  1
   occupations     =  'fixed'
 /

 &ELECTRONS
   conv_thr        =  4e-7
 /

ATOMIC_SPECIES 
  S    65.38   S.pbe-n-kjpaw_psl.1.0.0.UPF 


ATOMIC_POSITIONS (angstrom)
S            -0.0116638467        0.0000000000        0.0000000000
S             1.9019055822        0.0000000000        0.0000000000

K_POINTS automatic
  1   1   1   0   0   0 

CELL_PARAMETERS
   1.000127902   0.000000000   0.000000000
   0.000000000   0.999996638   0.000000000
   0.000000000   0.000000000   0.999996638


