&INPUTPP
prefix='Cu_qn1_unrlxd'
outdir='out'
filplot='Cu_in_ZnS.qn1.unrlxd.pp'
plot_num = 11
/
&PLOT
nfile=1
filepp(1)='Cu_in_ZnS.qn1.unrlxd.pp'
iflag=3
output_format=6
fileout='4.v_elec.Cu_in_ZnS.qn1.unrlxd.cube'
/
