&DOS
    outdir  =  'out/'
    prefix  =  'Cu_qn1_unrlxd'
    fildos  =  '5.Cu_in_ZnS.qn1.unrlxd.dos'
    Emin = -15
    Emax = 15
/
