&PROJWFC
 prefix = "Cu_qn1_unrlxd"
 outdir = "./out/"
 filpdos = "Cu_in_ZnS.qn1.unrlxd"
 Emin = -15
 Emax = 15
/
