&INPUTPP
prefix='ZnS'
outdir='out'
filplot='ZnS.pp'
plot_num = 11
/
&PLOT
nfile=1
filepp(1)='ZnS.pp'
iflag=3
output_format=6
fileout='v_elec_ZnS.cube'
/
