&PROJWFC
 prefix = "ZnS_hub"
 outdir = "./out/"
 filpdos = "ZnS_hub"
 Emin = -15
 Emax = 13
/
