&DOS
    outdir  =  'out/'
    prefix  =  'Co_unrlxd_q0'
    fildos  =  'Co_in_ZnS.q0.dos'
    Emin = 0
    Emax = 12
/
