&INPUTPP
prefix='Co_unrlxd_q0'
outdir='out'
filplot='Co_in_ZnS_q0.pp'
plot_num = 11
/
&PLOT
nfile=1
filepp(1)='Co_in_ZnS_q0.pp'
iflag=3
output_format=6
fileout='v_elec_Co_in_ZnS_q0.cube'
/
