&PROJWFC
 prefix = "Co_unrlxd_q0"
 outdir = "./out/"
 filpdos = "Co_in_ZnS.q0"
 Emin = 0
 Emax = 12
/
