&CONTROL
  calculation = 'scf'
  outdir = './out/'
  prefix = 'Fe_vac_q0' 
  pseudo_dir = '/arf/home/amuhaymin/pseudo/' 
  verbosity = 'high'
  disk_io = 'low'
/
&SYSTEM
  ecutwfc = 150
  ecutrho = 600
  ibrav = 1
  a = 10.88441000000
  nat = 63
  ntyp = 3
  occupations = 'smearing'
  smearing = 'gauss'
  degauss = 0.001
  nspin = 2
  starting_magnetization(3) = 0.25000000000000000000000
/
&ELECTRONS
  conv_thr =   1d-08
/
ATOMIC_SPECIES
S      32.065 S.pbe-n-kjpaw_psl.1.0.0.UPF
Zn     65.38 Zn.pbe-dnl-kjpaw_psl.1.0.0.UPF
Fe     63.546   Fe.pbe-spn-kjpaw_psl.1.0.0.UPF
ATOMIC_POSITIONS crystal
Zn            0.0001000469        0.0001000469        0.0001000469
Zn           -0.0006202295        0.2501888889        0.2501888889
Zn            0.2501888889       -0.0006202295        0.2501888889
Zn            0.2501888889        0.2501888889       -0.0006202295
S             0.1246121299        0.3757881861        0.3757881861
S             0.1253067722        0.1253067722        0.1253067722
S             0.3757881861        0.3757881861        0.1246121299
S             0.3757881861        0.1246121299        0.3757881861
Zn           -0.0024987515       -0.0024987515        0.5012844493
Zn           -0.0029411377        0.2537101646        0.7490075565
Zn            0.2537101646       -0.0029411377        0.7490075565
Zn            0.2505140750        0.2505140750        0.5002931913
S             0.1253897519        0.3763002352        0.8740966626
S             0.1247615393        0.1247615393        0.6257503894
S             0.3794971738        0.3794971738        0.6232232563
S             0.3763002352        0.1253897519        0.8740966626
Zn           -0.0024987515        0.5012844493       -0.0024987515
Zn           -0.0029411377        0.7490075565        0.2537101646
Zn            0.2505140750        0.5002931913        0.2505140750
Zn            0.2537101646        0.7490075565       -0.0029411377
S             0.1253897519        0.8740966626        0.3763002352
S             0.1247615393        0.6257503894        0.1247615393
S             0.3763002352        0.8740966626        0.1253897519
S             0.3794971738        0.6232232563        0.3794971738
Zn           -0.0021113943        0.5003710282        0.5003710282
Zn           -0.0008069255        0.7505327838        0.7505327838
Zn            0.2513276619        0.5020058335        0.7501783533
Zn            0.2513276619        0.7501783533        0.5020058335
S             0.1260168286        0.8747816240        0.8747816240
S             0.1247828189        0.6250730742        0.6250730742
S             0.3821242102        0.8683939139        0.6265895876
S             0.3821242102        0.6265895876        0.8683939139
Zn            0.5012844493       -0.0024987515       -0.0024987515
Zn            0.5002931913        0.2505140750        0.2505140750
Zn            0.7490075565       -0.0029411377        0.2537101646
Zn            0.7490075565        0.2537101646       -0.0029411377
S             0.6232232563        0.3794971738        0.3794971738
S             0.6257503894        0.1247615393        0.1247615393
S             0.8740966626        0.3763002352        0.1253897519
S             0.8740966626        0.1253897519        0.3763002352
Zn            0.5003710282       -0.0021113943        0.5003710282
Zn            0.5020058335        0.2513276619        0.7501783533
Zn            0.7505327838       -0.0008069255        0.7505327838
Zn            0.7501783533        0.2513276619        0.5020058335
S             0.6265895876        0.3821242102        0.8683939139
S             0.6250730742        0.1247828189        0.6250730742
S             0.8683939139        0.3821242102        0.6265895876
S             0.8747816240        0.1260168286        0.8747816240
Zn            0.5003710282        0.5003710282       -0.0021113943
Zn            0.5020058335        0.7501783533        0.2513276619
Zn            0.7501783533        0.5020058335        0.2513276619
Zn            0.7505327838        0.7505327838       -0.0008069255
S             0.6265895876        0.8683939139        0.3821242102
S             0.6250730742        0.6250730742        0.1247828189
S             0.8747816240        0.8747816240        0.1260168286
S             0.8683939139        0.6265895876        0.3821242102
Fe            0.5059266699        0.5059266699        0.5059266699
Zn            0.5251991729        0.7298257905        0.7298257905
Zn            0.7298257905        0.5251991729        0.7298257905
Zn            0.7298257905        0.7298257905        0.5251991729
S             0.6251075427        0.8704494347        0.8704494347
S             0.8704494347        0.8704494347        0.6251075427
S             0.8704494347        0.6251075427        0.8704494347
K_POINTS automatic
4 4 4 0 0 0
