&INPUTPP
prefix='Fe_vac_q0'
outdir='out'
filplot='Fe_vac_in_ZnS.q0.pp'
plot_num = 11
/
&PLOT
nfile=1
filepp(1)='Fe_vac_in_ZnS.q0.pp'
iflag=3
output_format=6
fileout='v_elec.Fe_vac_in_ZnS.q0.cube'
/
