&CONTROL
  calculation = 'nscf'
  outdir = './out/'
  prefix = 'Cu_vac_qp1' 
  pseudo_dir = '/arf/home/amuhaymin/pseudo/' 
  verbosity = 'high'
  disk_io = 'low'
/
&SYSTEM
  ecutwfc = 150
  ecutrho = 600
  ibrav = 1
  a = 10.88441000000
  nat = 63
  ntyp = 3
  occupations = 'tetrahedra_opt'
  nspin = 2
  starting_magnetization(3) = 0.1052631578947368421
  tot_charge = 1
/
&ELECTRONS
  conv_thr =   1d-08
/
ATOMIC_SPECIES
S      32.065 S.pbe-n-kjpaw_psl.1.0.0.UPF
Zn     65.38 Zn.pbe-dnl-kjpaw_psl.1.0.0.UPF
Cu     63.546   Cu.pbe-spn-kjpaw_psl.1.0.0.UPF
ATOMIC_POSITIONS crystal
Zn            0.0003359496        0.0003359496        0.0003359496
Zn            0.0007923696        0.2499957417        0.2499957417
Zn            0.2499957417        0.0007923696        0.2499957417
Zn            0.2499957417        0.2499957417        0.0007923696
S             0.1253288266        0.3748354448        0.3748354448
S             0.1248579843        0.1248579843        0.1248579843
S             0.3748354448        0.3748354448        0.1253288266
S             0.3748354448        0.1253288266        0.3748354448
Zn            0.0025035209        0.0025035209        0.4988740594
Zn            0.0026522256        0.2474779807        0.7504669869
Zn            0.2474779807        0.0026522256        0.7504669869
Zn            0.2524861438        0.2524861438        0.5013026431
S             0.1245827217        0.3746700879        0.8753519813
S             0.1255959954        0.1255959954        0.6240384643
S             0.3761935460        0.3761935460        0.6259080068
S             0.3746700879        0.1245827217        0.8753519813
Zn            0.0025035209        0.4988740594        0.0025035209
Zn            0.0026522256        0.7504669869        0.2474779807
Zn            0.2524861438        0.5013026431        0.2524861438
Zn            0.2474779807        0.7504669869        0.0026522256
S             0.1245827217        0.8753519813        0.3746700879
S             0.1255959954        0.6240384643        0.1255959954
S             0.3746700879        0.8753519813        0.1245827217
S             0.3761935460        0.6259080068        0.3761935460
Zn            0.0039331378        0.5003141219        0.5003141219
Zn            0.0033416405        0.7487307897        0.7487307897
Zn            0.2492190849        0.4964153644        0.7470606835
Zn            0.2492190849        0.7470606835        0.4964153644
S             0.1245380579        0.8747573096        0.8747573096
S             0.1259907632        0.6249127663        0.6249127663
S             0.3726560897        0.8768240843        0.6222655846
S             0.3726560897        0.6222655846        0.8768240843
Zn            0.4988740594        0.0025035209        0.0025035209
Zn            0.5013026431        0.2524861438        0.2524861438
Zn            0.7504669869        0.0026522256        0.2474779807
Zn            0.7504669869        0.2474779807        0.0026522256
S             0.6259080068        0.3761935460        0.3761935460
S             0.6240384643        0.1255959954        0.1255959954
S             0.8753519813        0.3746700879        0.1245827217
S             0.8753519813        0.1245827217        0.3746700879
Zn            0.5003141219        0.0039331378        0.5003141219
Zn            0.4964153644        0.2492190849        0.7470606835
Zn            0.7487307897        0.0033416405        0.7487307897
Zn            0.7470606835        0.2492190849        0.4964153644
S             0.6222655846        0.3726560897        0.8768240843
S             0.6249127663        0.1259907632        0.6249127663
S             0.8768240843        0.3726560897        0.6222655846
S             0.8747573096        0.1245380579        0.8747573096
Zn            0.5003141219        0.5003141219        0.0039331378
Zn            0.4964153644        0.7470606835        0.2492190849
Zn            0.7470606835        0.4964153644        0.2492190849
Zn            0.7487307897        0.7487307897        0.0033416405
S             0.6222655846        0.8768240843        0.3726560897
S             0.6249127663        0.6249127663        0.1259907632
S             0.8747573096        0.8747573096        0.1245380579
S             0.8768240843        0.6222655846        0.3726560897
Cu            0.4700209347        0.4700209347        0.4700209347
Zn            0.4685464902        0.7793025361        0.7793025361
Zn            0.7793025361        0.4685464902        0.7793025361
Zn            0.7793025361        0.7793025361        0.4685464902
S             0.6267301858        0.8759594517        0.8759594517
S             0.8759594517        0.8759594517        0.6267301858
S             0.8759594517        0.6267301858        0.8759594517
K_POINTS automatic
4 4 4 0 0 0
