&DOS
    outdir  =  'out/'
    prefix  =  'Cu_vac_q0'
    fildos  =  'Cu_vac_in_ZnS.q0.dos'
    Emin = -15
    Emax = 15
/
