&PROJWFC
 prefix = "Cu_vac_q0"
 outdir = "./out/"
 filpdos = "Cu_vac_in_ZnS.q0."
 Emin = -15
 Emax = 15
/
