&CONTROL
  calculation = 'relax'
  outdir = './out/'
  prefix = 'Cu_vac_qn1_U8' 
  pseudo_dir = '/arf/home/amuhaymin/pseudo/' 
  verbosity = 'high'
  disk_io = 'none'
  etot_conv_thr = 1.0D-5
  forc_conv_thr = 1.0D-4
/
&SYSTEM
  ecutwfc = 150
  ecutrho = 600
  ibrav = 1
  a = 10.88441000000
  nat = 63
  ntyp = 3
  occupations = 'smearing'
  smearing = 'gauss'
  degauss = 0.001
  nspin = 2
  starting_magnetization(3) = 0.0000000000000000000
  tot_charge = -1
/
&ELECTRONS
  conv_thr =   1d-06
/
&IONS
/
ATOMIC_SPECIES
S      32.065 S.pbe-n-kjpaw_psl.1.0.0.UPF
Zn     65.38 Zn.pbe-dnl-kjpaw_psl.1.0.0.UPF
Cu     63.546   Cu.pbe-spn-kjpaw_psl.1.0.0.UPF
ATOMIC_POSITIONS crystal
Zn            0.0014843250        0.0014843250        0.0014843250
Zn           -0.0012768756        0.2502847622        0.2502847622
Zn            0.2502847622       -0.0012768756        0.2502847622
Zn            0.2502847622        0.2502847622       -0.0012768756
S             0.1237697804        0.3755053090        0.3755053090
S             0.1262840773        0.1262840773        0.1262840773
S             0.3755053090        0.3755053090        0.1237697804
S             0.3755053090        0.1237697804        0.3755053090
Zn           -0.0024069590       -0.0024069590        0.5019584564
Zn           -0.0038086775        0.2565711383        0.7483778025
Zn            0.2565711383       -0.0038086775        0.7483778025
Zn            0.2496223138        0.2496223138        0.5018271494
S             0.1253380031        0.3773223353        0.8746961517
S             0.1236261003        0.1236261003        0.6270818799
S             0.3744785801        0.3744785801        0.6252534285
S             0.3773223353        0.1253380031        0.8746961517
Zn           -0.0024069590        0.5019584564       -0.0024069590
Zn           -0.0038086775        0.7483778025        0.2565711383
Zn            0.2496223138        0.5018271494        0.2496223138
Zn            0.2565711383        0.7483778025       -0.0038086775
S             0.1253380031        0.8746961517        0.3773223353
S             0.1236261003        0.6270818799        0.1236261003
S             0.3773223353        0.8746961517        0.1253380031
S             0.3744785801        0.6252534285        0.3744785801
Zn           -0.0026619197        0.5005053157        0.5005053157
Zn            0.0012165787        0.7512977597        0.7512977597
Zn            0.2540909643        0.5007975793        0.7487660903
Zn            0.2540909643        0.7487660903        0.5007975793
S             0.1279342107        0.8758510399        0.8758510399
S             0.1254075130        0.6252514049        0.6252514049
S             0.3853578427        0.8660771608        0.6278594743
S             0.3853578427        0.6278594743        0.8660771608
Zn            0.5019584564       -0.0024069590       -0.0024069590
Zn            0.5018271494        0.2496223138        0.2496223138
Zn            0.7483778025       -0.0038086775        0.2565711383
Zn            0.7483778025        0.2565711383       -0.0038086775
S             0.6252534285        0.3744785801        0.3744785801
S             0.6270818799        0.1236261003        0.1236261003
S             0.8746961517        0.3773223353        0.1253380031
S             0.8746961517        0.1253380031        0.3773223353
Zn            0.5005053157       -0.0026619197        0.5005053157
Zn            0.5007975793        0.2540909643        0.7487660903
Zn            0.7512977597        0.0012165787        0.7512977597
Zn            0.7487660903        0.2540909643        0.5007975793
S             0.6278594743        0.3853578427        0.8660771608
S             0.6252514049        0.1254075130        0.6252514049
S             0.8660771608        0.3853578427        0.6278594743
S             0.8758510399        0.1279342107        0.8758510399
Zn            0.5005053157        0.5005053157       -0.0026619197
Zn            0.5007975793        0.7487660903        0.2540909643
Zn            0.7487660903        0.5007975793        0.2540909643
Zn            0.7512977597        0.7512977597        0.0012165787
S             0.6278594743        0.8660771608        0.3853578427
S             0.6252514049        0.6252514049        0.1254075130
S             0.8758510399        0.8758510399        0.1279342107
S             0.8660771608        0.6278594743        0.3853578427
Cu            0.4829965487        0.4829965487        0.4829965487
Zn            0.5367453193        0.7271611664        0.7271611664
Zn            0.7271611664        0.5367453193        0.7271611664
Zn            0.7271611664        0.7271611664        0.5367453193
S             0.6272002855        0.8722669633        0.8722669633
S             0.8722669633        0.8722669633        0.6272002855
S             0.8722669633        0.6272002855        0.8722669633
K_POINTS automatic
4 4 4 0 0 0
HUBBARD ortho-atomic
U Zn-3d 7.0000
U Cu-3d 8.0000
