&CONTROL
  calculation = 'relax'
  outdir = './out/'
  prefix = 'Cu_vac_qn1_U8' 
  pseudo_dir = '/arf/home/amuhaymin/pseudo/' 
  verbosity = 'high'
  disk_io = 'none'
  etot_conv_thr = 1.0D-5
  forc_conv_thr = 1.0D-4
/
&SYSTEM
  ecutwfc = 150
  ecutrho = 600
  ibrav = 1
  a = 10.88441000000
  nat = 63
  ntyp = 3
  occupations = 'smearing'
  smearing = 'gauss'
  degauss = 0.001
  nspin = 2
  starting_magnetization(3) = 0.0000000000000000000
  tot_charge = -1
/
&ELECTRONS
  conv_thr =   1d-06
/
&IONS
/
ATOMIC_SPECIES
S      32.065 S.pbe-n-kjpaw_psl.1.0.0.UPF
Zn     65.38 Zn.pbe-dnl-kjpaw_psl.1.0.0.UPF
Cu     63.546   Cu.pbe-spn-kjpaw_psl.1.0.0.UPF
ATOMIC_POSITIONS crystal
Zn           -0.0000750522       -0.0000750522       -0.0000750522
Zn            0.0006624828        0.2508805701        0.2508805701
Zn            0.2508805701        0.0006624828        0.2508805701
Zn            0.2508805701        0.2508805701        0.0006624828
S             0.1256743746        0.3758630632        0.3758630632
S             0.1251198691        0.1251198691        0.1251198691
S             0.3758630632        0.3758630632        0.1256743746
S             0.3758630632        0.1256743746        0.3758630632
Zn           -0.0018081327       -0.0018081327        0.5008882749
Zn           -0.0033024660        0.2537831451        0.7485015785
Zn            0.2537831451       -0.0033024660        0.7485015785
Zn            0.2539902461        0.2539902461        0.5028451502
S             0.1251833871        0.3756337846        0.8748990557
S             0.1252965374        0.1252965374        0.6252081110
S             0.3783359487        0.3783359487        0.6263833335
S             0.3756337846        0.1251833871        0.8748990557
Zn           -0.0018081327        0.5008882749       -0.0018081327
Zn           -0.0033024660        0.7485015785        0.2537831451
Zn            0.2539902461        0.5028451502        0.2539902461
Zn            0.2537831451        0.7485015785       -0.0033024660
S             0.1251833871        0.8748990557        0.3756337846
S             0.1252965374        0.6252081110        0.1252965374
S             0.3756337846        0.8748990557        0.1251833871
S             0.3783359487        0.6263833335        0.3783359487
Zn           -0.0022326636        0.5000441846        0.5000441846
Zn           -0.0010656027        0.7495941622        0.7495941622
Zn            0.2525427011        0.5002146932        0.7495273864
Zn            0.2525427011        0.7495273864        0.5002146932
S             0.1254329359        0.8746745895        0.8746745895
S             0.1251285581        0.6249196087        0.6249196087
S             0.3829968990        0.8673802639        0.6274678729
S             0.3829968990        0.6274678729        0.8673802639
Zn            0.5008882749       -0.0018081327       -0.0018081327
Zn            0.5028451502        0.2539902461        0.2539902461
Zn            0.7485015785       -0.0033024660        0.2537831451
Zn            0.7485015785        0.2537831451       -0.0033024660
S             0.6263833335        0.3783359487        0.3783359487
S             0.6252081110        0.1252965374        0.1252965374
S             0.8748990557        0.3756337846        0.1251833871
S             0.8748990557        0.1251833871        0.3756337846
Zn            0.5000441846       -0.0022326636        0.5000441846
Zn            0.5002146932        0.2525427011        0.7495273864
Zn            0.7495941622       -0.0010656027        0.7495941622
Zn            0.7495273864        0.2525427011        0.5002146932
S             0.6274678729        0.3829968990        0.8673802639
S             0.6249196087        0.1251285581        0.6249196087
S             0.8673802639        0.3829968990        0.6274678729
S             0.8746745895        0.1254329359        0.8746745895
Zn            0.5000441846        0.5000441846       -0.0022326636
Zn            0.5002146932        0.7495273864        0.2525427011
Zn            0.7495273864        0.5002146932        0.2525427011
Zn            0.7495941622        0.7495941622       -0.0010656027
S             0.6274678729        0.8673802639        0.3829968990
S             0.6249196087        0.6249196087        0.1251285581
S             0.8746745895        0.8746745895        0.1254329359
S             0.8673802639        0.6274678729        0.3829968990
Cu            0.4990351272        0.4990351272        0.4990351272
Zn            0.5297998165        0.7268541565        0.7268541565
Zn            0.7268541565        0.5297998165        0.7268541565
Zn            0.7268541565        0.7268541565        0.5297998165
S             0.6240261136        0.8706113497        0.8706113497
S             0.8706113497        0.8706113497        0.6240261136
S             0.8706113497        0.6240261136        0.8706113497
K_POINTS automatic
4 4 4 0 0 0
HUBBARD ortho-atomic
U Zn-3d 7.0000
U Cu-3d 8.0000
