&CONTROL
  calculation = 'relax'
  outdir = './out/'
  prefix = 'Cu_vac_qn1_U8' 
  pseudo_dir = '/arf/home/amuhaymin/pseudo/' 
  verbosity = 'high'
  disk_io = 'none'
  etot_conv_thr = 1.0D-5
  forc_conv_thr = 1.0D-4
/
&SYSTEM
  ecutwfc = 150
  ecutrho = 600
  ibrav = 1
  a = 10.88441000000
  nat = 63
  ntyp = 3
  occupations = 'smearing'
  smearing = 'gauss'
  degauss = 0.001
  nspin = 2
  starting_magnetization(3) = 0.0000000000000000000
  tot_charge = -1
/
&ELECTRONS
  conv_thr =   1d-06
/
&IONS
/
ATOMIC_SPECIES
S      32.065 S.pbe-n-kjpaw_psl.1.0.0.UPF
Zn     65.38 Zn.pbe-dnl-kjpaw_psl.1.0.0.UPF
Cu     63.546   Cu.pbe-spn-kjpaw_psl.1.0.0.UPF
ATOMIC_POSITIONS crystal
Zn           -0.0000965933       -0.0000965933       -0.0000965933
Zn            0.0004926064        0.2508429027        0.2508429027
Zn            0.2508429027        0.0004926064        0.2508429027
Zn            0.2508429027        0.2508429027        0.0004926064
S             0.1256033678        0.3759121528        0.3759121528
S             0.1251652884        0.1251652884        0.1251652884
S             0.3759121528        0.3759121528        0.1256033678
S             0.3759121528        0.1256033678        0.3759121528
Zn           -0.0018754978       -0.0018754978        0.5009704666
Zn           -0.0032784171        0.2538714593        0.7484798815
Zn            0.2538714593       -0.0032784171        0.7484798815
Zn            0.2538501219        0.2538501219        0.5030644295
S             0.1251033503        0.3757531486        0.8749036899
S             0.1251279343        0.1251279343        0.6253040828
S             0.3783467208        0.3783467208        0.6263406008
S             0.3757531486        0.1251033503        0.8749036899
Zn           -0.0018754978        0.5009704666       -0.0018754978
Zn           -0.0032784171        0.7484798815        0.2538714593
Zn            0.2538501219        0.5030644295        0.2538501219
Zn            0.2538714593        0.7484798815       -0.0032784171
S             0.1251033503        0.8749036899        0.3757531486
S             0.1251279343        0.6253040828        0.1251279343
S             0.3757531486        0.8749036899        0.1251033503
S             0.3783467208        0.6263406008        0.3783467208
Zn           -0.0023094968        0.5001261141        0.5001261141
Zn           -0.0011891226        0.7496304385        0.7496304385
Zn            0.2526125874        0.5001866345        0.7494758833
Zn            0.2526125874        0.7494758833        0.5001866345
S             0.1255436583        0.8745950523        0.8745950523
S             0.1250945119        0.6249576327        0.6249576327
S             0.3829462758        0.8674724157        0.6274165804
S             0.3829462758        0.6274165804        0.8674724157
Zn            0.5009704666       -0.0018754978       -0.0018754978
Zn            0.5030644295        0.2538501219        0.2538501219
Zn            0.7484798815       -0.0032784171        0.2538714593
Zn            0.7484798815        0.2538714593       -0.0032784171
S             0.6263406008        0.3783467208        0.3783467208
S             0.6253040828        0.1251279343        0.1251279343
S             0.8749036899        0.3757531486        0.1251033503
S             0.8749036899        0.1251033503        0.3757531486
Zn            0.5001261141       -0.0023094968        0.5001261141
Zn            0.5001866345        0.2526125874        0.7494758833
Zn            0.7496304385       -0.0011891226        0.7496304385
Zn            0.7494758833        0.2526125874        0.5001866345
S             0.6274165804        0.3829462758        0.8674724157
S             0.6249576327        0.1250945119        0.6249576327
S             0.8674724157        0.3829462758        0.6274165804
S             0.8745950523        0.1255436583        0.8745950523
Zn            0.5001261141        0.5001261141       -0.0023094968
Zn            0.5001866345        0.7494758833        0.2526125874
Zn            0.7494758833        0.5001866345        0.2526125874
Zn            0.7496304385        0.7496304385       -0.0011891226
S             0.6274165804        0.8674724157        0.3829462758
S             0.6249576327        0.6249576327        0.1250945119
S             0.8745950523        0.8745950523        0.1255436583
S             0.8674724157        0.6274165804        0.3829462758
Cu            0.4987527080        0.4987527080        0.4987527080
Zn            0.5300354114        0.7268058588        0.7268058588
Zn            0.7268058588        0.5300354114        0.7268058588
Zn            0.7268058588        0.7268058588        0.5300354114
S             0.6241986483        0.8707517956        0.8707517956
S             0.8707517956        0.8707517956        0.6241986483
S             0.8707517956        0.6241986483        0.8707517956
K_POINTS automatic
4 4 4 0 0 0
HUBBARD ortho-atomic
U Zn-3d 7.0000
U Cu-3d 8.0000
