&CONTROL
  calculation = 'relax'
  outdir = './out/'
  prefix = 'Cu_vac_q0_U' 
  pseudo_dir = '/arf/home/amuhaymin/pseudo/' 
  verbosity = 'high'
  disk_io = 'none'
  etot_conv_thr = 1.0D-5
  forc_conv_thr = 1.0D-4
/
&SYSTEM
  ecutwfc = 150
  ecutrho = 600
  ibrav = 1
  a = 10.88441000000
  nat = 63
  ntyp = 3
  occupations = 'smearing'
  smearing = 'gauss'
  degauss = 0.001
  nspin = 2
  starting_magnetization(3) = 0.05263157894736842105
/
&ELECTRONS
  conv_thr =   1d-06
/
&IONS
/
ATOMIC_SPECIES
S      32.065 S.pbe-n-kjpaw_psl.1.0.0.UPF
Zn     65.38 Zn.pbe-dnl-kjpaw_psl.1.0.0.UPF
Cu     63.546   Cu.pbe-spn-kjpaw_psl.1.0.0.UPF
ATOMIC_POSITIONS crystal
Zn            0.0001878413        0.0001878413        0.0001878413
Zn           -0.0001108006        0.2500888554        0.2500888554
Zn            0.2500888554       -0.0001108006        0.2500888554
Zn            0.2500888554        0.2500888554       -0.0001108006
S             0.1248469050        0.3750043998        0.3750043998
S             0.1249530624        0.1249530624        0.1249530624
S             0.3750043998        0.3750043998        0.1248469050
S             0.3750043998        0.1248469050        0.3750043998
Zn           -0.0000132878       -0.0000132878        0.4991952753
Zn            0.0002135112        0.2503043356        0.7505342862
Zn            0.2503043356        0.0002135112        0.7505342862
Zn            0.2530869712        0.2530869712        0.5021677151
S             0.1246885540        0.3753124936        0.8751692059
S             0.1247343578        0.1247343578        0.6249211428
S             0.3794705070        0.3794705070        0.6248258182
S             0.3753124936        0.1246885540        0.8751692059
Zn           -0.0000132878        0.4991952753       -0.0000132878
Zn            0.0002135112        0.7505342862        0.2503043356
Zn            0.2530869712        0.5021677151        0.2530869712
Zn            0.2503043356        0.7505342862        0.0002135112
S             0.1246885540        0.8751692059        0.3753124936
S             0.1247343578        0.6249211428        0.1247343578
S             0.3753124936        0.8751692059        0.1246885540
S             0.3794705070        0.6248258182        0.3794705070
Zn            0.0011561016        0.5002037260        0.5002037260
Zn            0.0009709604        0.7494947350        0.7494947350
Zn            0.2513926269        0.4972987428        0.7472433793
Zn            0.2513926269        0.7472433793        0.4972987428
S             0.1248146766        0.8747709200        0.8747709200
S             0.1250192475        0.6252582864        0.6252582864
S             0.3767748936        0.8730281456        0.6241542455
S             0.3767748936        0.6241542455        0.8730281456
Zn            0.4991952753       -0.0000132878       -0.0000132878
Zn            0.5021677151        0.2530869712        0.2530869712
Zn            0.7505342862        0.0002135112        0.2503043356
Zn            0.7505342862        0.2503043356        0.0002135112
S             0.6248258182        0.3794705070        0.3794705070
S             0.6249211428        0.1247343578        0.1247343578
S             0.8751692059        0.3753124936        0.1246885540
S             0.8751692059        0.1246885540        0.3753124936
Zn            0.5002037260        0.0011561016        0.5002037260
Zn            0.4972987428        0.2513926269        0.7472433793
Zn            0.7494947350        0.0009709604        0.7494947350
Zn            0.7472433793        0.2513926269        0.4972987428
S             0.6241542455        0.3767748936        0.8730281456
S             0.6252582864        0.1250192475        0.6252582864
S             0.8730281456        0.3767748936        0.6241542455
S             0.8747709200        0.1248146766        0.8747709200
Zn            0.5002037260        0.5002037260        0.0011561016
Zn            0.4972987428        0.7472433793        0.2513926269
Zn            0.7472433793        0.4972987428        0.2513926269
Zn            0.7494947350        0.7494947350        0.0009709604
S             0.6241542455        0.8730281456        0.3767748936
S             0.6252582864        0.6252582864        0.1250192475
S             0.8747709200        0.8747709200        0.1248146766
S             0.8730281456        0.6241542455        0.3767748936
Cu            0.4917910546        0.4917910546        0.4917910546
Zn            0.4983154166        0.7514971873        0.7514971873
Zn            0.7514971873        0.4983154166        0.7514971873
Zn            0.7514971873        0.7514971873        0.4983154166
S             0.6261007024        0.8732113621        0.8732113621
S             0.8732113621        0.8732113621        0.6261007024
S             0.8732113621        0.6261007024        0.8732113621
K_POINTS automatic
4 4 4 0 0 0
HUBBARD ortho-atomic
U Zn-3d 7.0000
U Cu-3d 2.0000
