&CONTROL
  calculation = 'scf'
  outdir = './out/'
  prefix = 'Co_qn1' 
  pseudo_dir = '/arf/home/amuhaymin/pseudo/' 
  verbosity = 'high'
  disk_io = 'nowf'
/
&SYSTEM
  ecutwfc = 150
  ecutrho = 600
  ibrav = 1
  a = 10.88441000000
  nat = 64
  ntyp = 3
  occupations = 'smearing'
  smearing = 'gauss'
  degauss = 0.001
  nspin = 2
  starting_magnetization(3) = 0.11764705882352941176
  tot_charge = -1
/
&ELECTRONS
  conv_thr =   1d-08
/
&IONS
/
ATOMIC_SPECIES
S      32.065 S.pbe-n-kjpaw_psl.1.0.0.UPF
Zn     65.38 Zn.pbe-dnl-kjpaw_psl.1.0.0.UPF
Co     63.546   Co.pbe-spn-kjpaw_psl.0.3.1.UPF
ATOMIC_POSITIONS (crystal)
Zn            0.0000000000        0.0000000000        0.0000000000
Zn           -0.0001013479        0.2501603445        0.2501603445
Zn            0.2501603445       -0.0001013479        0.2501603445
Zn            0.2501603445        0.2501603445       -0.0001013479
S             0.1247821780        0.3748237859        0.3748237859
S             0.1249576807        0.1249576807        0.1249576807
S             0.3748237859        0.3748237859        0.1247821780
S             0.3748237859        0.1247821780        0.3748237859
Zn            0.0000000000       -0.0000000000        0.5000000000
Zn            0.0001013479        0.2501603445        0.7498396555
Zn            0.2501603445        0.0001013479        0.7498396555
Zn            0.2509544232        0.2509544232        0.5010004395
S             0.1247058036        0.3749343295        0.8752941964
S             0.1247058036        0.1247058036        0.6250656705
S             0.3765178549        0.3765178549        0.6234821451
S             0.3749343295        0.1247058036        0.8752941964
Zn            0.0000000000        0.5000000000        0.0000000000
Zn            0.0001013479        0.7498396555        0.2501603445
Zn            0.2509544232        0.5010004395        0.2509544232
Zn            0.2501603445        0.7498396555        0.0001013479
S             0.1247058036        0.8752941964        0.3749343295
S             0.1247058036        0.6250656705        0.1247058036
S             0.3749343295        0.8752941964        0.1247058036
S             0.3765178549        0.6234821451        0.3765178549
Zn            0.0000000000        0.5000000000        0.5000000000
Zn           -0.0001013479        0.7498396555        0.7498396555
Zn            0.2509544232        0.4989995605        0.7490455768
Zn            0.2509544232        0.7490455768        0.4989995605
S             0.1249576807        0.8750423193        0.8750423193
S             0.1247821780        0.6251762141        0.6251762141
S             0.3748237859        0.8752178220        0.6251762141
S             0.3748237859        0.6251762141        0.8752178220
Zn            0.5000000000       -0.0000000000        0.0000000000
Zn            0.5010004395        0.2509544232        0.2509544232
Zn            0.7498396555        0.0001013479        0.2501603445
Zn            0.7498396555        0.2501603445        0.0001013479
S             0.6234821451        0.3765178549        0.3765178549
S             0.6250656705        0.1247058036        0.1247058036
S             0.8752941964        0.3749343295        0.1247058036
S             0.8752941964        0.1247058036        0.3749343295
Zn            0.5000000000       -0.0000000000        0.5000000000
Zn            0.4989995605        0.2509544232        0.7490455768
Zn            0.7498396555       -0.0001013479        0.7498396555
Zn            0.7490455768        0.2509544232        0.4989995605
S             0.6251762141        0.3748237859        0.8752178220
S             0.6251762141        0.1247821780        0.6251762141
S             0.8752178220        0.3748237859        0.6251762141
S             0.8750423193        0.1249576807        0.8750423193
Zn            0.5000000000        0.5000000000        0.0000000000
Zn            0.4989995605        0.7490455768        0.2509544232
Zn            0.7490455768        0.4989995605        0.2509544232
Zn            0.7498396555        0.7498396555       -0.0001013479
S             0.6251762141        0.8752178220        0.3748237859
S             0.6251762141        0.6251762141        0.1247821780
S             0.8750423193        0.8750423193        0.1249576807
S             0.8752178220        0.6251762141        0.3748237859
Co            0.5000000000        0.5000000000        0.5000000000
Zn            0.5010004395        0.7490455768        0.7490455768
Zn            0.7490455768        0.5010004395        0.7490455768
Zn            0.7490455768        0.7490455768        0.5010004395
S             0.6250656705        0.8752941964        0.8752941964
S             0.6234821451        0.6234821451        0.6234821451
S             0.8752941964        0.8752941964        0.6250656705
S             0.8752941964        0.6250656705        0.8752941964
K_POINTS automatic
4 4 4 0 0 0
