&CONTROL
  calculation = 'nscf'
  outdir = './out/'
  prefix = 'Co_qn1' 
  pseudo_dir = '/arf/home/amuhaymin/pseudo/' 
  verbosity = 'high'
  disk_io = 'low'
/
&SYSTEM
  ecutwfc = 150
  ecutrho = 600
  ibrav = 1
  a = 10.88441000000
  nat = 64
  ntyp = 3
  occupations = 'tetrahedra_opt'
  nspin = 2
  starting_magnetization(3) = 0.11764705882352941176
  tot_charge = -1
/
&ELECTRONS
  conv_thr =   1d-08
/
ATOMIC_SPECIES
S      32.065 S.pbe-n-kjpaw_psl.1.0.0.UPF
Zn     65.38 Zn.pbe-dnl-kjpaw_psl.1.0.0.UPF
Co     63.546   Co.pbe-spn-kjpaw_psl.0.3.1.UPF
ATOMIC_POSITIONS (crystal)
Zn            0.0000000000        0.0000000000        0.0000000000
Zn            0.0001067222        0.2504661138        0.2504661138
Zn            0.2504661138        0.0001067222        0.2504661138
Zn            0.2504661138        0.2504661138        0.0001067222
S             0.1255070977        0.3751040162        0.3751040162
S             0.1250482974        0.1250482974        0.1250482974
S             0.3751040162        0.3751040162        0.1255070977
S             0.3751040162        0.1255070977        0.3751040162
Zn            0.0000000000       -0.0000000000        0.5000000000
Zn           -0.0001067222        0.2504661138        0.7495338862
Zn            0.2504661138       -0.0001067222        0.7495338862
Zn            0.2526730068        0.2526730068        0.5023971007
S             0.1251956116        0.3751200938        0.8748043884
S             0.1251956116        0.1251956116        0.6248799062
S             0.3789502407        0.3789502407        0.6210497593
S             0.3751200938        0.1251956116        0.8748043884
Zn            0.0000000000        0.5000000000        0.0000000000
Zn           -0.0001067222        0.7495338862        0.2504661138
Zn            0.2526730068        0.5023971007        0.2526730068
Zn            0.2504661138        0.7495338862       -0.0001067222
S             0.1251956116        0.8748043884        0.3751200938
S             0.1251956116        0.6248799062        0.1251956116
S             0.3751200938        0.8748043884        0.1251956116
S             0.3789502407        0.6210497593        0.3789502407
Zn            0.0000000000        0.5000000000        0.5000000000
Zn            0.0001067222        0.7495338862        0.7495338862
Zn            0.2526730068        0.4976028993        0.7473269932
Zn            0.2526730068        0.7473269932        0.4976028993
S             0.1250482974        0.8749517026        0.8749517026
S             0.1255070977        0.6248959838        0.6248959838
S             0.3751040162        0.8744929023        0.6248959838
S             0.3751040162        0.6248959838        0.8744929023
Zn            0.5000000000        0.0000000000        0.0000000000
Zn            0.5023971007        0.2526730068        0.2526730068
Zn            0.7495338862       -0.0001067222        0.2504661138
Zn            0.7495338862        0.2504661138       -0.0001067222
S             0.6210497593        0.3789502407        0.3789502407
S             0.6248799062        0.1251956116        0.1251956116
S             0.8748043884        0.3751200938        0.1251956116
S             0.8748043884        0.1251956116        0.3751200938
Zn            0.5000000000       -0.0000000000        0.5000000000
Zn            0.4976028993        0.2526730068        0.7473269932
Zn            0.7495338862        0.0001067222        0.7495338862
Zn            0.7473269932        0.2526730068        0.4976028993
S             0.6248959838        0.3751040162        0.8744929023
S             0.6248959838        0.1255070977        0.6248959838
S             0.8744929023        0.3751040162        0.6248959838
S             0.8749517026        0.1250482974        0.8749517026
Zn            0.5000000000        0.5000000000        0.0000000000
Zn            0.4976028993        0.7473269932        0.2526730068
Zn            0.7473269932        0.4976028993        0.2526730068
Zn            0.7495338862        0.7495338862        0.0001067222
S             0.6248959838        0.8744929023        0.3751040162
S             0.6248959838        0.6248959838        0.1255070977
S             0.8749517026        0.8749517026        0.1250482974
S             0.8744929023        0.6248959838        0.3751040162
Co            0.5000000000        0.5000000000        0.5000000000
Zn            0.5023971007        0.7473269932        0.7473269932
Zn            0.7473269932        0.5023971007        0.7473269932
Zn            0.7473269932        0.7473269932        0.5023971007
S             0.6248799062        0.8748043884        0.8748043884
S             0.6210497593        0.6210497593        0.6210497593
S             0.8748043884        0.8748043884        0.6248799062
S             0.8748043884        0.6248799062        0.8748043884
K_POINTS automatic
4 4 4 0 0 0
