&PROJWFC
 prefix = "Co_qn1"
 outdir = "./out/"
 filpdos = "Co_in_ZnS.qn1"
 Emin = -15
 Emax = 15
/
