&CONTROL
  calculation = 'scf'
  outdir = './out/'
  prefix = 'Cu_qn1' 
  pseudo_dir = '/arf/home/amuhaymin/pseudo/' 
  verbosity = 'high'
  disk_io = 'nowf'
/
&SYSTEM
  ecutwfc = 150
  ecutrho = 600
  ibrav = 1
  a = 10.88441000000
  nat = 64
  ntyp = 3
  occupations = 'smearing'
  smearing = 'gauss'
  degauss = 0.001
  nspin = 2
  starting_magnetization(3) = 0.0000000000000000000
  tot_charge = -1
/
&ELECTRONS
  conv_thr =   1d-08
/
ATOMIC_SPECIES
S      32.065 S.pbe-n-kjpaw_psl.1.0.0.UPF
Zn     65.38 Zn.pbe-dnl-kjpaw_psl.1.0.0.UPF
Cu     63.546   Cu.pbe-spn-kjpaw_psl.1.0.0.UPF
ATOMIC_POSITIONS crystal
Zn            0.0000000000        0.0000000000        0.0000000000
Zn            0.0000961129        0.2504753074        0.2504753074
Zn            0.2504753074        0.0000961129        0.2504753074
Zn            0.2504753074        0.2504753074        0.0000961129
S             0.1254445089        0.3750190658        0.3750190658
S             0.1250180067        0.1250180067        0.1250180067
S             0.3750190658        0.3750190658        0.1254445089
S             0.3750190658        0.1254445089        0.3750190658
Zn            0.0000000000       -0.0000000000        0.5000000000
Zn           -0.0000961129        0.2504753074        0.7495246926
Zn            0.2504753074       -0.0000961129        0.7495246926
Zn            0.2525220737        0.2525220737        0.5026075517
S             0.1249033945        0.3750536843        0.8750966055
S             0.1249033945        0.1249033945        0.6249463157
S             0.3769253153        0.3769253153        0.6230746847
S             0.3750536843        0.1249033945        0.8750966055
Zn            0.0000000000        0.5000000000        0.0000000000
Zn           -0.0000961129        0.7495246926        0.2504753074
Zn            0.2525220737        0.5026075517        0.2525220737
Zn            0.2504753074        0.7495246926       -0.0000961129
S             0.1249033945        0.8750966055        0.3750536843
S             0.1249033945        0.6249463157        0.1249033945
S             0.3750536843        0.8750966055        0.1249033945
S             0.3769253153        0.6230746847        0.3769253153
Zn            0.0000000000        0.5000000000        0.5000000000
Zn            0.0000961129        0.7495246926        0.7495246926
Zn            0.2525220737        0.4973924483        0.7474779263
Zn            0.2525220737        0.7474779263        0.4973924483
S             0.1250180067        0.8749819933        0.8749819933
S             0.1254445089        0.6249809342        0.6249809342
S             0.3750190658        0.8745554911        0.6249809342
S             0.3750190658        0.6249809342        0.8745554911
Zn            0.5000000000        0.0000000000        0.0000000000
Zn            0.5026075517        0.2525220737        0.2525220737
Zn            0.7495246926       -0.0000961129        0.2504753074
Zn            0.7495246926        0.2504753074       -0.0000961129
S             0.6230746847        0.3769253153        0.3769253153
S             0.6249463157        0.1249033945        0.1249033945
S             0.8750966055        0.3750536843        0.1249033945
S             0.8750966055        0.1249033945        0.3750536843
Zn            0.5000000000        0.0000000000        0.5000000000
Zn            0.4973924483        0.2525220737        0.7474779263
Zn            0.7495246926        0.0000961129        0.7495246926
Zn            0.7474779263        0.2525220737        0.4973924483
S             0.6249809342        0.3750190658        0.8745554911
S             0.6249809342        0.1254445089        0.6249809342
S             0.8745554911        0.3750190658        0.6249809342
S             0.8749819933        0.1250180067        0.8749819933
Zn            0.5000000000        0.5000000000        0.0000000000
Zn            0.4973924483        0.7474779263        0.2525220737
Zn            0.7474779263        0.4973924483        0.2525220737
Zn            0.7495246926        0.7495246926        0.0000961129
S             0.6249809342        0.8745554911        0.3750190658
S             0.6249809342        0.6249809342        0.1254445089
S             0.8749819933        0.8749819933        0.1250180067
S             0.8745554911        0.6249809342        0.3750190658
Cu            0.5000000000        0.5000000000        0.5000000000
Zn            0.5026075517        0.7474779263        0.7474779263
Zn            0.7474779263        0.5026075517        0.7474779263
Zn            0.7474779263        0.7474779263        0.5026075517
S             0.6249463157        0.8750966055        0.8750966055
S             0.6230746847        0.6230746847        0.6230746847
S             0.8750966055        0.8750966055        0.6249463157
S             0.8750966055        0.6249463157        0.8750966055
K_POINTS automatic
4 4 4 0 0 0
