&INPUTPP
prefix='Cu_qn1'
outdir='out'
filplot='Cu_in_ZnS.qn1.pp'
plot_num = 11
/
&PLOT
nfile=1
filepp(1)='Cu_in_ZnS.qn1.pp'
iflag=3
output_format=6
fileout='4.v_elec.Cu_in_ZnS.qn1.cube'
/
