&DOS
    outdir  =  'out/'
    prefix  =  'Cu_qn1'
    fildos  =  '5.Cu_in_ZnS.qn1.dos'
    Emin = -15
    Emax = 15
/
