&PROJWFC
 prefix = "Cu_qn1"
 outdir = "./out/"
 filpdos = "Cu_in_ZnS.qn1"
 Emin = -15
 Emax = 15
/
