&INPUTPP
prefix='Cu_vac_qp1_U2_unrlxd'
outdir='out'
filplot='Cu_vac_in_ZnS.qp1.unrlxd.U2.pp'
plot_num = 11
/
&PLOT
nfile=1
filepp(1)='Cu_vac_in_ZnS.qp1.unrlxd.U2.pp'
iflag=3
output_format=6
fileout='4.v_elec.Cu_vac_in_ZnS.qp1.unrlxd.U2.cube'
/
