&PROJWFC
 prefix = "Cu_vac_qp1_U2_unrlxd"
 outdir = "./out/"
 filpdos = "Cu_vac_in_ZnS.qp1.unrlxd.U2"
 Emin = -15
 Emax = 15
/
