&PROJWFC
 prefix = "Fe_q0_unrlxd"
 outdir = "./out/"
 filpdos = "Fe_in_ZnS.q0.unrlxd"
 Emin = -15
 Emax = 15
/
