&PROJWFC
 prefix = "Cu_vac_q0_U"
 outdir = "./out/"
 filpdos = "Cu_vac_in_ZnS.q0.U.2"
 Emin = -15
 Emax = 15
/
