&PROJWFC
 prefix = "Cu_vac_q0_U2_unrlxd"
 outdir = "./out/"
 filpdos = "Cu_vac_in_ZnS.q0.unrlxd.U2"
 Emin = -15
 Emax = 15
/
