&PROJWFC
 prefix = "Cu_q0_unrlxd"
 outdir = "./out/"
 filpdos = "Cu_in_ZnS.q0.unrlxd"
 Emin = -15
 Emax = 15
/
