&INPUTPP
prefix='Cu_vac_qn1_U3_unrlxd'
outdir='out'
filplot='Cu_vac_in_ZnS.qn1.unrlxd.U3.pp'
plot_num = 11
/
&PLOT
nfile=1
filepp(1)='Cu_vac_in_ZnS.qn1.unrlxd.U3.pp'
iflag=3
output_format=6
fileout='4.v_elec.Cu_vac_in_ZnS.qn1.unrlxd.U3.cube'
/
