&DOS
    outdir  =  'out/'
    prefix  =  'Cu_vac_qn1_U3_unrlxd'
    fildos  =  '5.Cu_vac_in_ZnS.qn1.unrlxd.U3.dos'
    Emin = -15
    Emax = 15
/
