&PROJWFC
 prefix = "Cu_vac_q0_U3_unrlxd"
 outdir = "./out/"
 filpdos = "Cu_vac_in_ZnS.q0.unrlxd.U3"
 Emin = -15
 Emax = 15
/
