&CONTROL
  calculation = 'nscf'
  outdir = './out/'
  prefix = 'Ni_qp1' 
  pseudo_dir = '/arf/home/amuhaymin/pseudo/' 
  verbosity = 'high'
  disk_io = 'low'
/
&SYSTEM
  ecutwfc = 150
  ecutrho = 600
  ibrav = 1
  a = 10.88441000000
  nat = 64
  ntyp = 3
  occupations = 'tetrahedra_opt'
  nspin = 2
  starting_magnetization(3) = 0.16666666666666666666667
  tot_charge = 1
/
&ELECTRONS
  conv_thr =   1d-08
/
ATOMIC_SPECIES
S      32.065 S.pbe-n-kjpaw_psl.1.0.0.UPF
Zn     65.38 Zn.pbe-dnl-kjpaw_psl.1.0.0.UPF
Ni     63.546   Ni.pbe-spn-kjpaw_psl.1.0.0.UPF
ATOMIC_POSITIONS crystal
Zn            0.0000000000       -0.0000000000        0.0000000000
Zn           -0.0000240504        0.2498748766        0.2498748766
Zn            0.2498748766       -0.0000240504        0.2498748766
Zn            0.2498748766        0.2498748766       -0.0000240504
S             0.1250393971        0.3752391472        0.3752391472
S             0.1250568656        0.1250568656        0.1250568656
S             0.3752391472        0.3752391472        0.1250393971
S             0.3752391472        0.1250393971        0.3752391472
Zn            0.0000000000        0.0000000000        0.5000000000
Zn            0.0000240504        0.2498748766        0.7501251234
Zn            0.2498748766        0.0000240504        0.7501251234
Zn            0.2501623212        0.2501623212        0.4983566395
S             0.1259120371        0.3752661145        0.8740879629
S             0.1259120371        0.1259120371        0.6247338855
S             0.3798951378        0.3798951378        0.6201048622
S             0.3752661145        0.1259120371        0.8740879629
Zn            0.0000000000        0.5000000000        0.0000000000
Zn            0.0000240504        0.7501251234        0.2498748766
Zn            0.2501623212        0.4983566395        0.2501623212
Zn            0.2498748766        0.7501251234        0.0000240504
S             0.1259120371        0.8740879629        0.3752661145
S             0.1259120371        0.6247338855        0.1259120371
S             0.3752661145        0.8740879629        0.1259120371
S             0.3798951378        0.6201048622        0.3798951378
Zn            0.0000000000        0.5000000000        0.5000000000
Zn           -0.0000240504        0.7501251234        0.7501251234
Zn            0.2501623212        0.5016433605        0.7498376788
Zn            0.2501623212        0.7498376788        0.5016433605
S             0.1250568656        0.8749431344        0.8749431344
S             0.1250393971        0.6247608528        0.6247608528
S             0.3752391472        0.8749606029        0.6247608528
S             0.3752391472        0.6247608528        0.8749606029
Zn            0.5000000000        0.0000000000        0.0000000000
Zn            0.4983566395        0.2501623212        0.2501623212
Zn            0.7501251234        0.0000240504        0.2498748766
Zn            0.7501251234        0.2498748766        0.0000240504
S             0.6201048622        0.3798951378        0.3798951378
S             0.6247338855        0.1259120371        0.1259120371
S             0.8740879629        0.3752661145        0.1259120371
S             0.8740879629        0.1259120371        0.3752661145
Zn            0.5000000000       -0.0000000000        0.5000000000
Zn            0.5016433605        0.2501623212        0.7498376788
Zn            0.7501251234       -0.0000240504        0.7501251234
Zn            0.7498376788        0.2501623212        0.5016433605
S             0.6247608528        0.3752391472        0.8749606029
S             0.6247608528        0.1250393971        0.6247608528
S             0.8749606029        0.3752391472        0.6247608528
S             0.8749431344        0.1250568656        0.8749431344
Zn            0.5000000000        0.5000000000        0.0000000000
Zn            0.5016433605        0.7498376788        0.2501623212
Zn            0.7498376788        0.5016433605        0.2501623212
Zn            0.7501251234        0.7501251234       -0.0000240504
S             0.6247608528        0.8749606029        0.3752391472
S             0.6247608528        0.6247608528        0.1250393971
S             0.8749431344        0.8749431344        0.1250568656
S             0.8749606029        0.6247608528        0.3752391472
Ni            0.5000000000        0.5000000000        0.5000000000
Zn            0.4983566395        0.7498376788        0.7498376788
Zn            0.7498376788        0.4983566395        0.7498376788
Zn            0.7498376788        0.7498376788        0.4983566395
S             0.6247338855        0.8740879629        0.8740879629
S             0.6201048622        0.6201048622        0.6201048622
S             0.8740879629        0.8740879629        0.6247338855
S             0.8740879629        0.6247338855        0.8740879629
K_POINTS automatic
4 4 4 0 0 0
