&INPUTPP
prefix='Ni_qp1'
outdir='out'
filplot='Ni_in_ZnS.qp1.pp'
plot_num = 11
/
&PLOT
nfile=1
filepp(1)='Ni_in_ZnS.qp1.pp'
iflag=3
output_format=6
fileout='4.v_elec.Ni_in_ZnS.qp1.cube'
/
