&INPUTPP
prefix='Ni_qn1'
outdir='out'
filplot='Ni_in_ZnS.qn1.pp'
plot_num = 11
/
&PLOT
nfile=1
filepp(1)='Ni_in_ZnS.qn1.pp'
iflag=3
output_format=6
fileout='v_elec.Ni_in_ZnS.qn1.cube'
/
