&DOS
    outdir  =  'out/'
    prefix  =  'Ni_qp1'
    fildos  =  '5.Ni_in_ZnS.qp1.dos'
    Emin = -15
    Emax = 15
/
