&PROJWFC
 prefix = "Ni_qp1"
 outdir = "./out/"
 filpdos = "Ni_in_ZnS.qp1"
 Emin = -15
 Emax = 15
/
