&DOS
    outdir  =  'out/'
    prefix  =  'Cu_vac_q0_U6_unrlxd'
    fildos  =  '5.Cu_vac_in_ZnS.q0.unrlxd.U6.dos'
    Emin = -15
    Emax = 15
/
