&CONTROL
  calculation = 'nscf'
  outdir = './out/'
  prefix = 'ZnS_hub'
  pseudo_dir = '/arf/home/amuhaymin/pseudo/'
  verbosity = 'high'
  disk_io = 'low'
/
&SYSTEM
  ecutwfc = 105
  ecutrho = 420
  ibrav = 1
  a = 10.88441000000
  nat = 64
  ntyp = 2
  occupations = 'tetrahedra_opt'
  nspin = 1
  nbnd = 345
/
&ELECTRONS
  conv_thr =   1d-06
  startingpot = "file"
  startingwfc = "file"
/
ATOMIC_SPECIES
S      32.065 S.pbe-n-kjpaw_psl.1.0.0.UPF
Zn     65.38 Zn.pbe-dnl-kjpaw_psl.1.0.0.UPF
ATOMIC_POSITIONS crystal
Zn           0.0000000000       0.0000000000       0.0000000000 
Zn           0.0000000000       0.2500000000       0.2500000000 
Zn           0.2500000000       0.0000000000       0.2500000000 
Zn           0.2500000000       0.2500000000       0.0000000000 
S            0.1250000000       0.3750000000       0.3750000000 
S            0.1250000000       0.1250000000       0.1250000000 
S            0.3750000000       0.3750000000       0.1250000000 
S            0.3750000000       0.1250000000       0.3750000000 
Zn           0.0000000000       0.0000000000       0.5000000000 
Zn           0.0000000000       0.2500000000       0.7500000000 
Zn           0.2500000000       0.0000000000       0.7500000000 
Zn           0.2500000000       0.2500000000       0.5000000000 
S            0.1250000000       0.3750000000       0.8750000000 
S            0.1250000000       0.1250000000       0.6250000000 
S            0.3750000000       0.3750000000       0.6250000000 
S            0.3750000000       0.1250000000       0.8750000000 
Zn           0.0000000000       0.5000000000       0.0000000000 
Zn           0.0000000000       0.7500000000       0.2500000000 
Zn           0.2500000000       0.5000000000       0.2500000000 
Zn           0.2500000000       0.7500000000       0.0000000000 
S            0.1250000000       0.8750000000       0.3750000000 
S            0.1250000000       0.6250000000       0.1250000000 
S            0.3750000000       0.8750000000       0.1250000000 
S            0.3750000000       0.6250000000       0.3750000000 
Zn           0.0000000000       0.5000000000       0.5000000000 
Zn           0.0000000000       0.7500000000       0.7500000000 
Zn           0.2500000000       0.5000000000       0.7500000000 
Zn           0.2500000000       0.7500000000       0.5000000000 
S            0.1250000000       0.8750000000       0.8750000000 
S            0.1250000000       0.6250000000       0.6250000000 
S            0.3750000000       0.8750000000       0.6250000000 
S            0.3750000000       0.6250000000       0.8750000000 
Zn           0.5000000000       0.0000000000       0.0000000000 
Zn           0.5000000000       0.2500000000       0.2500000000 
Zn           0.7500000000       0.0000000000       0.2500000000 
Zn           0.7500000000       0.2500000000       0.0000000000 
S            0.6250000000       0.3750000000       0.3750000000 
S            0.6250000000       0.1250000000       0.1250000000 
S            0.8750000000       0.3750000000       0.1250000000 
S            0.8750000000       0.1250000000       0.3750000000 
Zn           0.5000000000       0.0000000000       0.5000000000 
Zn           0.5000000000       0.2500000000       0.7500000000 
Zn           0.7500000000       0.0000000000       0.7500000000 
Zn           0.7500000000       0.2500000000       0.5000000000 
S            0.6250000000       0.3750000000       0.8750000000 
S            0.6250000000       0.1250000000       0.6250000000 
S            0.8750000000       0.3750000000       0.6250000000 
S            0.8750000000       0.1250000000       0.8750000000 
Zn           0.5000000000       0.5000000000       0.0000000000 
Zn           0.5000000000       0.7500000000       0.2500000000 
Zn           0.7500000000       0.5000000000       0.2500000000 
Zn           0.7500000000       0.7500000000       0.0000000000 
S            0.6250000000       0.8750000000       0.3750000000 
S            0.6250000000       0.6250000000       0.1250000000 
S            0.8750000000       0.8750000000       0.1250000000 
S            0.8750000000       0.6250000000       0.3750000000 
Zn           0.5000000000       0.5000000000       0.5000000000 
Zn           0.5000000000       0.7500000000       0.7500000000 
Zn           0.7500000000       0.5000000000       0.7500000000 
Zn           0.7500000000       0.7500000000       0.5000000000 
S            0.6250000000       0.8750000000       0.8750000000 
S            0.6250000000       0.6250000000       0.6250000000 
S            0.8750000000       0.8750000000       0.6250000000 
S            0.8750000000       0.6250000000       0.8750000000
K_POINTS automatic
4 4 4 0 0 0
HUBBARD ortho-atomic
U Zn-3d 7
