&CONTROL
  calculation = 'scf'
  outdir = './out/'
  prefix = 'Co_qp2' 
  pseudo_dir = '/arf/home/amuhaymin/pseudo/' 
  verbosity = 'high'
  disk_io = 'low'
/
&SYSTEM
  ecutwfc = 150
  ecutrho = 600
  ibrav = 1
  a = 10.88441000000
  nat = 63
  ntyp = 3
  occupations = 'smearing'
  smearing = 'gauss'
  degauss = 0.001
  nspin = 2
  starting_magnetization(3) = 0.29411764705882352941
  tot_charge = 2
/
&ELECTRONS
  conv_thr =   1d-08
/
ATOMIC_SPECIES
S      32.065 S.pbe-n-kjpaw_psl.1.0.0.UPF
Zn     65.38 Zn.pbe-dnl-kjpaw_psl.1.0.0.UPF
Co     63.546   Co.pbe-spn-kjpaw_psl.0.3.1.UPF
ATOMIC_POSITIONS (crystal)
Zn            0.0002634859        0.0002634859        0.0002634859
Zn            0.0000735065        0.2492344540        0.2492344540
Zn            0.2492344540        0.0000735065        0.2492344540
Zn            0.2492344540        0.2492344540        0.0000735065
S             0.1243633531        0.3744311901        0.3744311901
S             0.1247218373        0.1247218373        0.1247218373
S             0.3744311901        0.3744311901        0.1243633531
S             0.3744311901        0.1243633531        0.3744311901
Zn            0.0023303387        0.0023303387        0.4988833354
Zn            0.0021237486        0.2474729239        0.7503291846
Zn            0.2474729239        0.0021237486        0.7503291846
Zn            0.2487463746        0.2487463746        0.4981482345
S             0.1250552097        0.3747427302        0.8743547606
S             0.1253976907        0.1253976907        0.6242407489
S             0.3752167935        0.3752167935        0.6229553259
S             0.3747427302        0.1250552097        0.8743547606
Zn            0.0023303387        0.4988833354        0.0023303387
Zn            0.0021237486        0.7503291846        0.2474729239
Zn            0.2487463746        0.4981482345        0.2487463746
Zn            0.2474729239        0.7503291846        0.0021237486
S             0.1250552097        0.8743547606        0.3747427302
S             0.1253976907        0.6242407489        0.1253976907
S             0.3747427302        0.8743547606        0.1250552097
S             0.3752167935        0.6229553259        0.3752167935
Zn            0.0035416921        0.5001294869        0.5001294869
Zn            0.0035796555        0.7494404852        0.7494404852
Zn            0.2479407207        0.4994214217        0.7489759677
Zn            0.2479407207        0.7489759677        0.4994214217
S             0.1250861563        0.8749714937        0.8749714937
S             0.1257173419        0.6246889916        0.6246889916
S             0.3736194686        0.8763352259        0.6223527524
S             0.3736194686        0.6223527524        0.8763352259
Zn            0.4988833354        0.0023303387        0.0023303387
Zn            0.4981482345        0.2487463746        0.2487463746
Zn            0.7503291846        0.0021237486        0.2474729239
Zn            0.7503291846        0.2474729239        0.0021237486
S             0.6229553259        0.3752167935        0.3752167935
S             0.6242407489        0.1253976907        0.1253976907
S             0.8743547606        0.3747427302        0.1250552097
S             0.8743547606        0.1250552097        0.3747427302
Zn            0.5001294869        0.0035416921        0.5001294869
Zn            0.4994214217        0.2479407207        0.7489759677
Zn            0.7494404852        0.0035796555        0.7494404852
Zn            0.7489759677        0.2479407207        0.4994214217
S             0.6223527524        0.3736194686        0.8763352259
S             0.6246889916        0.1257173419        0.6246889916
S             0.8763352259        0.3736194686        0.6223527524
S             0.8749714937        0.1250861563        0.8749714937
Zn            0.5001294869        0.5001294869        0.0035416921
Zn            0.4994214217        0.7489759677        0.2479407207
Zn            0.7489759677        0.4994214217        0.2479407207
Zn            0.7494404852        0.7494404852        0.0035796555
S             0.6223527524        0.8763352259        0.3736194686
S             0.6246889916        0.6246889916        0.1257173419
S             0.8749714937        0.8749714937        0.1250861563
S             0.8763352259        0.6223527524        0.3736194686
Co            0.4776963828        0.4776963828        0.4776963828
Zn            0.4696620015        0.7803810804        0.7803810804
Zn            0.7803810804        0.4696620015        0.7803810804
Zn            0.7803810804        0.7803810804        0.4696620015
S             0.6273683815        0.8766567863        0.8766567863
S             0.8766567863        0.8766567863        0.6273683815
S             0.8766567863        0.6273683815        0.8766567863
K_POINTS automatic
4 4 4 0 0 0
