&INPUTPP
prefix='Co_vac_qp2'
outdir='out'
filplot='Co_vac_in_ZnS.qp2.pp'
plot_num = 11
/
&PLOT
nfile=1
filepp(1)='Co_vac_in_ZnS.qp2.pp'
iflag=3
output_format=6
fileout='v_elec.Co_vac_in_ZnS.qp2.cube'
/
