&PROJWFC
 prefix = "Co_qp2"
 outdir = "./out/"
 filpdos = "Co_vac_in_ZnS.qp2"
 Emin = -15
 Emax = 15
/
