&CONTROL
  calculation = 'relax'
  outdir = './out/'
  prefix = 'Cu_vac_qn1_U7' 
  pseudo_dir = '/arf/home/amuhaymin/pseudo/' 
  verbosity = 'high'
  disk_io = 'none'
  etot_conv_thr = 1.0D-5
  forc_conv_thr = 1.0D-4
/
&SYSTEM
  ecutwfc = 150
  ecutrho = 600
  ibrav = 1
  a = 10.88441000000
  nat = 63
  ntyp = 3
  occupations = 'smearing'
  smearing = 'gauss'
  degauss = 0.001
  nspin = 2
  starting_magnetization(3) = 0.0000000000000000000
  tot_charge = -1
/
&ELECTRONS
  conv_thr =   1d-06
/
&IONS
/
ATOMIC_SPECIES
S      32.065 S.pbe-n-kjpaw_psl.1.0.0.UPF
Zn     65.38 Zn.pbe-dnl-kjpaw_psl.1.0.0.UPF
Cu     63.546   Cu.pbe-spn-kjpaw_psl.1.0.0.UPF
ATOMIC_POSITIONS crystal
Zn            0.0008549828        0.0008549828        0.0008549828
Zn           -0.0015285602        0.2507370160        0.2507370160
Zn            0.2507370160       -0.0015285602        0.2507370160
Zn            0.2507370160        0.2507370160       -0.0015285602
S             0.1240541130        0.3756196256        0.3756196256
S             0.1260124951        0.1260124951        0.1260124951
S             0.3756196256        0.3756196256        0.1240541130
S             0.3756196256        0.1240541130        0.3756196256
Zn           -0.0021258930       -0.0021258930        0.5018288580
Zn           -0.0033110510        0.2562489774        0.7483316308
Zn            0.2562489774       -0.0033110510        0.7483316308
Zn            0.2499097294        0.2499097294        0.5024469004
S             0.1253035329        0.3773568247        0.8745381952
S             0.1237887477        0.1237887477        0.6270962414
S             0.3745053663        0.3745053663        0.6259588405
S             0.3773568247        0.1253035329        0.8745381952
Zn           -0.0021258930        0.5018288580       -0.0021258930
Zn           -0.0033110510        0.7483316308        0.2562489774
Zn            0.2499097294        0.5024469004        0.2499097294
Zn            0.2562489774        0.7483316308       -0.0033110510
S             0.1253035329        0.8745381952        0.3773568247
S             0.1237887477        0.6270962414        0.1237887477
S             0.3773568247        0.8745381952        0.1253035329
S             0.3745053663        0.6259588405        0.3745053663
Zn           -0.0023912312        0.5007677063        0.5007677063
Zn            0.0010397411        0.7511573985        0.7511573985
Zn            0.2536203790        0.5010543343        0.7489014375
Zn            0.2536203790        0.7489014375        0.5010543343
S             0.1279683922        0.8756570921        0.8756570921
S             0.1252982479        0.6255565561        0.6255565561
S             0.3847754673        0.8664700318        0.6277867341
S             0.3847754673        0.6277867341        0.8664700318
Zn            0.5018288580       -0.0021258930       -0.0021258930
Zn            0.5024469004        0.2499097294        0.2499097294
Zn            0.7483316308       -0.0033110510        0.2562489774
Zn            0.7483316308        0.2562489774       -0.0033110510
S             0.6259588405        0.3745053663        0.3745053663
S             0.6270962414        0.1237887477        0.1237887477
S             0.8745381952        0.3773568247        0.1253035329
S             0.8745381952        0.1253035329        0.3773568247
Zn            0.5007677063       -0.0023912312        0.5007677063
Zn            0.5010543343        0.2536203790        0.7489014375
Zn            0.7511573985        0.0010397411        0.7511573985
Zn            0.7489014375        0.2536203790        0.5010543343
S             0.6277867341        0.3847754673        0.8664700318
S             0.6255565561        0.1252982479        0.6255565561
S             0.8664700318        0.3847754673        0.6277867341
S             0.8756570921        0.1279683922        0.8756570921
Zn            0.5007677063        0.5007677063       -0.0023912312
Zn            0.5010543343        0.7489014375        0.2536203790
Zn            0.7489014375        0.5010543343        0.2536203790
Zn            0.7511573985        0.7511573985        0.0010397411
S             0.6277867341        0.8664700318        0.3847754673
S             0.6255565561        0.6255565561        0.1252982479
S             0.8756570921        0.8756570921        0.1279683922
S             0.8664700318        0.6277867341        0.3847754673
Cu            0.4793065440        0.4793065440        0.4793065440
Zn            0.5359146606        0.7280789831        0.7280789831
Zn            0.7280789831        0.5359146606        0.7280789831
Zn            0.7280789831        0.7280789831        0.5359146606
S             0.6268016736        0.8724402283        0.8724402283
S             0.8724402283        0.8724402283        0.6268016736
S             0.8724402283        0.6268016736        0.8724402283
K_POINTS automatic
4 4 4 0 0 0
HUBBARD ortho-atomic
U Zn-3d 7.0000
U Cu-3d 7.0000
