&CONTROL
  calculation = 'relax'
  outdir = './out/'
  prefix = 'Cu_vac_qn1_U7' 
  pseudo_dir = '/arf/home/amuhaymin/pseudo/' 
  verbosity = 'high'
  disk_io = 'none'
  etot_conv_thr = 1.0D-5
  forc_conv_thr = 1.0D-4
/
&SYSTEM
  ecutwfc = 150
  ecutrho = 600
  ibrav = 1
  a = 10.88441000000
  nat = 63
  ntyp = 3
  occupations = 'smearing'
  smearing = 'gauss'
  degauss = 0.001
  nspin = 2
  starting_magnetization(3) = 0.0000000000000000000
  tot_charge = -1
/
&ELECTRONS
  conv_thr =   1d-06
/
&IONS
/
ATOMIC_SPECIES
S      32.065 S.pbe-n-kjpaw_psl.1.0.0.UPF
Zn     65.38 Zn.pbe-dnl-kjpaw_psl.1.0.0.UPF
Cu     63.546   Cu.pbe-spn-kjpaw_psl.1.0.0.UPF
ATOMIC_POSITIONS crystal
Zn           -0.0000692769       -0.0000692769       -0.0000692769
Zn            0.0003998793        0.2504635909        0.2504635909
Zn            0.2504635909        0.0003998793        0.2504635909
Zn            0.2504635909        0.2504635909        0.0003998793
S             0.1265771042        0.3757433360        0.3757433360
S             0.1250848455        0.1250848455        0.1250848455
S             0.3757433360        0.3757433360        0.1265771042
S             0.3757433360        0.1265771042        0.3757433360
Zn           -0.0009825983       -0.0009825983        0.5003437295
Zn           -0.0020313741        0.2521357613        0.7494585023
Zn            0.2521357613       -0.0020313741        0.7494585023
Zn            0.2544582525        0.2544582525        0.5031552316
S             0.1254110444        0.3754183123        0.8746584430
S             0.1259571398        0.1259571398        0.6247913538
S             0.3799101222        0.3799101222        0.6245585198
S             0.3754183123        0.1254110444        0.8746584430
Zn           -0.0009825983        0.5003437295       -0.0009825983
Zn           -0.0020313741        0.7494585023        0.2521357613
Zn            0.2544582525        0.5031552316        0.2544582525
Zn            0.2521357613        0.7494585023       -0.0020313741
S             0.1254110444        0.8746584430        0.3754183123
S             0.1259571398        0.6247913538        0.1259571398
S             0.3754183123        0.8746584430        0.1254110444
S             0.3799101222        0.6245585198        0.3799101222
Zn           -0.0015553697        0.4999889085        0.4999889085
Zn           -0.0008252708        0.7497931518        0.7497931518
Zn            0.2523353424        0.4988779804        0.7490446016
Zn            0.2523353424        0.7490446016        0.4988779804
S             0.1252859834        0.8748324653        0.8748324653
S             0.1259788566        0.6247464506        0.6247464506
S             0.3811460842        0.8683523985        0.6264810338
S             0.3811460842        0.6264810338        0.8683523985
Zn            0.5003437295       -0.0009825983       -0.0009825983
Zn            0.5031552316        0.2544582525        0.2544582525
Zn            0.7494585023       -0.0020313741        0.2521357613
Zn            0.7494585023        0.2521357613       -0.0020313741
S             0.6245585198        0.3799101222        0.3799101222
S             0.6247913538        0.1259571398        0.1259571398
S             0.8746584430        0.3754183123        0.1254110444
S             0.8746584430        0.1254110444        0.3754183123
Zn            0.4999889085       -0.0015553697        0.4999889085
Zn            0.4988779804        0.2523353424        0.7490446016
Zn            0.7497931518       -0.0008252708        0.7497931518
Zn            0.7490446016        0.2523353424        0.4988779804
S             0.6264810338        0.3811460842        0.8683523985
S             0.6247464506        0.1259788566        0.6247464506
S             0.8683523985        0.3811460842        0.6264810338
S             0.8748324653        0.1252859834        0.8748324653
Zn            0.4999889085        0.4999889085       -0.0015553697
Zn            0.4988779804        0.7490446016        0.2523353424
Zn            0.7490446016        0.4988779804        0.2523353424
Zn            0.7497931518        0.7497931518       -0.0008252708
S             0.6264810338        0.8683523985        0.3811460842
S             0.6247464506        0.6247464506        0.1259788566
S             0.8748324653        0.8748324653        0.1252859834
S             0.8683523985        0.6264810338        0.3811460842
Cu            0.4989565700        0.4989565700        0.4989565700
Zn            0.5293591393        0.7267002347        0.7267002347
Zn            0.7267002347        0.5293591393        0.7267002347
Zn            0.7267002347        0.7267002347        0.5293591393
S             0.6242239779        0.8714681791        0.8714681791
S             0.8714681791        0.8714681791        0.6242239779
S             0.8714681791        0.6242239779        0.8714681791
K_POINTS automatic
4 4 4 0 0 0
HUBBARD ortho-atomic
U Zn-3d 7.0000
U Cu-3d 7.0000
