&CONTROL
  calculation = 'relax'
  outdir = './out/'
  prefix = 'Cu_vac_qn1_U7' 
  pseudo_dir = '/arf/home/amuhaymin/pseudo/' 
  verbosity = 'high'
  disk_io = 'none'
  etot_conv_thr = 1.0D-5
  forc_conv_thr = 1.0D-4
/
&SYSTEM
  ecutwfc = 150
  ecutrho = 600
  ibrav = 1
  a = 10.88441000000
  nat = 63
  ntyp = 3
  occupations = 'smearing'
  smearing = 'gauss'
  degauss = 0.001
  nspin = 2
  starting_magnetization(3) = 0.0000000000000000000
  tot_charge = -1
/
&ELECTRONS
  conv_thr =   1d-06
/
&IONS
/
ATOMIC_SPECIES
S      32.065 S.pbe-n-kjpaw_psl.1.0.0.UPF
Zn     65.38 Zn.pbe-dnl-kjpaw_psl.1.0.0.UPF
Cu     63.546   Cu.pbe-spn-kjpaw_psl.1.0.0.UPF
ATOMIC_POSITIONS crystal
Zn           -0.0001342660       -0.0001342660       -0.0001342660
Zn            0.0002435384        0.2508440177        0.2508440177
Zn            0.2508440177        0.0002435384        0.2508440177
Zn            0.2508440177        0.2508440177        0.0002435384
S             0.1253523439        0.3759767461        0.3759767461
S             0.1252328997        0.1252328997        0.1252328997
S             0.3759767461        0.3759767461        0.1253523439
S             0.3759767461        0.1253523439        0.3759767461
Zn           -0.0020226881       -0.0020226881        0.5011885728
Zn           -0.0032522270        0.2541039479        0.7483475361
Zn            0.2541039479       -0.0032522270        0.7483475361
Zn            0.2535972205        0.2535972205        0.5033217979
S             0.1249907767        0.3759632442        0.8749381029
S             0.1248370618        0.1248370618        0.6254938826
S             0.3782245040        0.3782245040        0.6264383746
S             0.3759632442        0.1249907767        0.8749381029
Zn           -0.0020226881        0.5011885728       -0.0020226881
Zn           -0.0032522270        0.7483475361        0.2541039479
Zn            0.2535972205        0.5033217979        0.2535972205
Zn            0.2541039479        0.7483475361       -0.0032522270
S             0.1249907767        0.8749381029        0.3759632442
S             0.1248370618        0.6254938826        0.1248370618
S             0.3759632442        0.8749381029        0.1249907767
S             0.3782245040        0.6264383746        0.3782245040
Zn           -0.0023803633        0.5002589129        0.5002589129
Zn           -0.0013613996        0.7496698468        0.7496698468
Zn            0.2527827593        0.5002844250        0.7493344682
Zn            0.2527827593        0.7493344682        0.5002844250
S             0.1257025319        0.8744779089        0.8744779089
S             0.1249211942        0.6250524723        0.6250524723
S             0.3828946591        0.8677130009        0.6274561380
S             0.3828946591        0.6274561380        0.8677130009
Zn            0.5011885728       -0.0020226881       -0.0020226881
Zn            0.5033217979        0.2535972205        0.2535972205
Zn            0.7483475361       -0.0032522270        0.2541039479
Zn            0.7483475361        0.2541039479       -0.0032522270
S             0.6264383746        0.3782245040        0.3782245040
S             0.6254938826        0.1248370618        0.1248370618
S             0.8749381029        0.3759632442        0.1249907767
S             0.8749381029        0.1249907767        0.3759632442
Zn            0.5002589129       -0.0023803633        0.5002589129
Zn            0.5002844250        0.2527827593        0.7493344682
Zn            0.7496698468       -0.0013613996        0.7496698468
Zn            0.7493344682        0.2527827593        0.5002844250
S             0.6274561380        0.3828946591        0.8677130009
S             0.6250524723        0.1249211942        0.6250524723
S             0.8677130009        0.3828946591        0.6274561380
S             0.8744779089        0.1257025319        0.8744779089
Zn            0.5002589129        0.5002589129       -0.0023803633
Zn            0.5002844250        0.7493344682        0.2527827593
Zn            0.7493344682        0.5002844250        0.2527827593
Zn            0.7496698468        0.7496698468       -0.0013613996
S             0.6274561380        0.8677130009        0.3828946591
S             0.6250524723        0.6250524723        0.1249211942
S             0.8744779089        0.8744779089        0.1257025319
S             0.8677130009        0.6274561380        0.3828946591
Cu            0.4975231849        0.4975231849        0.4975231849
Zn            0.5295535517        0.7273338738        0.7273338738
Zn            0.7273338738        0.5295535517        0.7273338738
Zn            0.7273338738        0.7273338738        0.5295535517
S             0.6243799936        0.8709553733        0.8709553733
S             0.8709553733        0.8709553733        0.6243799936
S             0.8709553733        0.6243799936        0.8709553733
K_POINTS automatic
4 4 4 0 0 0
HUBBARD ortho-atomic
U Zn-3d 7.0000
U Cu-3d 7.0000
