&CONTROL
  calculation = 'scf'
  outdir = './out/'
  prefix = 'Cu_vac_q0_U8' 
  pseudo_dir = '/arf/home/amuhaymin/pseudo/' 
  verbosity = 'high'
  disk_io = 'nowf'
/
&SYSTEM
  ecutwfc = 150
  ecutrho = 600
  ibrav = 1
  a = 10.88441000000
  nat = 63
  ntyp = 3
  occupations = 'smearing'
  smearing = 'gauss'
  degauss = 0.001
  nspin = 2
  starting_magnetization(3) = 0.05263157894736842105
/
&ELECTRONS
  conv_thr =   1d-08
/
ATOMIC_SPECIES
S      32.065 S.pbe-n-kjpaw_psl.1.0.0.UPF
Zn     65.38 Zn.pbe-dnl-kjpaw_psl.1.0.0.UPF
Cu     63.546   Cu.pbe-spn-kjpaw_psl.1.0.0.UPF
ATOMIC_POSITIONS crystal
Zn            0.0004592067        0.0004592067        0.0004592067
Zn            0.0003856182        0.2504718373        0.2504718373
Zn            0.2504718373        0.0003856182        0.2504718373
Zn            0.2504718373        0.2504718373        0.0003856182
S             0.1255976693        0.3752498174        0.3752498174
S             0.1252873546        0.1252873546        0.1252873546
S             0.3752498174        0.3752498174        0.1255976693
S             0.3752498174        0.1255976693        0.3752498174
Zn            0.0002634731        0.0002634731        0.4999093428
Zn           -0.0000504672        0.2510655178        0.7499760206
Zn            0.2510655178       -0.0000504672        0.7499760206
Zn            0.2517286952        0.2517286952        0.5025947855
S             0.1247530845        0.3755053800        0.8753712223
S             0.1247152633        0.1247152633        0.6254404268
S             0.3755104502        0.3755104502        0.6269077622
S             0.3755053800        0.1247530845        0.8753712223
Zn            0.0002634731        0.4999093428        0.0002634731
Zn           -0.0000504672        0.7499760206        0.2510655178
Zn            0.2517286952        0.5025947855        0.2517286952
Zn            0.2510655178        0.7499760206       -0.0000504672
S             0.1247530845        0.8753712223        0.3755053800
S             0.1247152633        0.6254404268        0.1247152633
S             0.3755053800        0.8753712223        0.1247530845
S             0.3755104502        0.6269077622        0.3755104502
Zn            0.0012292943        0.5000559996        0.5000559996
Zn            0.0020587902        0.7499377970        0.7499377970
Zn            0.2505050636        0.4980686054        0.7481878793
Zn            0.2505050636        0.7481878793        0.4980686054
S             0.1257394210        0.8751743310        0.8751743310
S             0.1253267633        0.6251301529        0.6251301529
S             0.3768245317        0.8730838176        0.6241198541
S             0.3768245317        0.6241198541        0.8730838176
Zn            0.4999093428        0.0002634731        0.0002634731
Zn            0.5025947855        0.2517286952        0.2517286952
Zn            0.7499760206       -0.0000504672        0.2510655178
Zn            0.7499760206        0.2510655178       -0.0000504672
S             0.6269077622        0.3755104502        0.3755104502
S             0.6254404268        0.1247152633        0.1247152633
S             0.8753712223        0.3755053800        0.1247530845
S             0.8753712223        0.1247530845        0.3755053800
Zn            0.5000559996        0.0012292943        0.5000559996
Zn            0.4980686054        0.2505050636        0.7481878793
Zn            0.7499377970        0.0020587902        0.7499377970
Zn            0.7481878793        0.2505050636        0.4980686054
S             0.6241198541        0.3768245317        0.8730838176
S             0.6251301529        0.1253267633        0.6251301529
S             0.8730838176        0.3768245317        0.6241198541
S             0.8751743310        0.1257394210        0.8751743310
Zn            0.5000559996        0.5000559996        0.0012292943
Zn            0.4980686054        0.7481878793        0.2505050636
Zn            0.7481878793        0.4980686054        0.2505050636
Zn            0.7499377970        0.7499377970        0.0020587902
S             0.6241198541        0.8730838176        0.3768245317
S             0.6251301529        0.6251301529        0.1253267633
S             0.8751743310        0.8751743310        0.1257394210
S             0.8730838176        0.6241198541        0.3768245317
Cu            0.4801743040        0.4801743040        0.4801743040
Zn            0.4995416483        0.7531665043        0.7531665043
Zn            0.7531665043        0.4995416483        0.7531665043
Zn            0.7531665043        0.7531665043        0.4995416483
S             0.6270982481        0.8748098512        0.8748098512
S             0.8748098512        0.8748098512        0.6270982481
S             0.8748098512        0.6270982481        0.8748098512
K_POINTS automatic
4 4 4 0 0 0
HUBBARD ortho-atomic
U Zn-3d 7.0000
U Cu-3d 8.0000
