&INPUTPP
prefix='Cu_vac_q0_U8'
outdir='out'
filplot='Cu_vac_in_ZnS.q0.U8.pp'
plot_num = 11
/
&PLOT
nfile=1
filepp(1)='Cu_vac_in_ZnS.q0.U8.pp'
iflag=3
output_format=6
fileout='4.v_elec.Cu_vac_in_ZnS.q0.U8.cube'
/
